# PYTHONPATH must include directory above plugin directory.
#     Define either externally or here, then import plugin.
sys.path.insert(0, '.')

import os

#Set this up like a dictionary
SI = {
'name': 'diamond_open',
'basis': 'sto-3g/sto-3g',
'frags': '-1/1',
'methods': 'scf/scf',
'scratch': 'scr'
}

sifile = open('SI.txt', 'w')
sifile.write(SI['name']+'\n')
sifile.write(SI['frags']+'\n')
sifile.write(SI['methods']+'\n')
sifile.write(SI['basis']+'\n')
sifile.write(SI['scratch']+'\n')
sifile.close()
import scf_template

molecule {
0 1
 C        1.25628       12.99043        0.11409
 C        1.37233       14.60945        2.02866
 C        2.23971       13.82862        0.95668
 C       -0.80495       15.19545        0.47817
 C       -0.54046       16.18364        2.71628
 C        0.84959       16.99060        0.87649
 C        1.13056       18.06564        2.99179
 C        2.33349       15.33403        3.05120
 C        0.25133       15.69366        1.47930
 C        0.39717       16.90369        3.68120
 C        1.94434       17.52652        1.79283
 C        1.41076       15.87333        4.20863
 C        1.12789       16.43372        6.65338
 C        2.10355       16.44985        5.44579
 C        5.08464        8.88916        0.16795
 C        5.25889       10.98764        1.52767
 C        6.10774        9.91605        0.72592
 C        3.53630       11.26558       -0.49360
 C        3.35613       12.83785        1.61511
 C        5.15589       13.05469       -0.16117
 C        5.06809       14.67928        1.77468
 C        6.19579       11.82580        2.42522
 C        4.31559       12.01068        0.60713
 C        4.27656       13.62979        2.60801
 C        6.01825       13.84963        0.76313
 C        5.31082       12.68065        3.37487
 C        5.36017       14.25056        5.33093
 C        6.23742       13.50909        4.31182
 C        2.93575       14.95094        0.17141
 C        3.07129       16.45757        2.24424
 C        4.60319       16.88523        0.30983
 C        4.95460       18.23752        2.25572
 C        6.02855       15.49541        2.72950
 C        3.92927       15.72659        1.07794
 C        4.13910       17.22117        3.08559
 C        5.73826       17.50238        1.16497
 C        3.39266       14.35844        3.65902
 C        3.39685       15.71084        5.79216
 C        5.09135       16.24388        3.81912
 C        4.97695       17.66836        5.94453
 C        6.24099       15.10209        6.31700
 C        4.28858       15.15712        4.63082
 C        4.24878       16.58461        6.71641
 C        5.89700       17.04966        4.86575
 C        5.26513       15.68248        7.39763
 C        4.83097       16.44205        9.77320
 C        5.86069       16.40845        8.61179
 C        9.04969        5.10409        0.03456
 C        9.14267        7.21862        1.38880
 C       10.04493        6.13625        0.63218
 C        7.46473        7.42802       -0.65646
 C        7.24087        9.05836        1.43982
 C        9.16476        9.14020       -0.35096
 C        8.97689       10.87886        1.43321
 C       10.01371        8.10801        2.30844
 C        8.22989        8.19306        0.43854
 C        8.11655        9.96358        2.33668
 C        9.99216        9.95955        0.56586
 C        9.08638        9.06068        3.18909
 C        9.06776       10.87322        4.99973
 C        9.95731        9.96486        4.09928
 C        6.88935       10.79750       -0.23876
 C        7.02404       12.78380        1.53085
 C        8.71402       12.72043       -0.30658
 C        8.78043       14.60200        1.53449
 C        9.87822       11.78634        2.33324
 C        7.90272       11.78210        0.56291
 C        7.95788       13.65155        2.44323
 C        9.67461       13.62229        0.54752
 C        7.20005       10.88508        3.24298
 C        7.23455       12.60819        5.10421
 C        8.95947       12.70373        3.26219
 C        8.96962       14.46265        5.15653
 C        9.96105       11.77084        5.91274
 C        8.10941       11.75938        4.15486
 C        8.13525       13.48265        6.03338
 C        9.87946       13.60027        4.17147
 C        9.09909       12.62143        6.85425
 C        9.10729       14.30098        8.75899
 C        9.98414       13.52117        7.77671
 C        6.76848       14.88035       -0.08273
 C        6.84030       16.49372        1.81877
 C        8.43490       16.71812       -0.09328
 C        8.78657       18.21389        1.71913
 C        9.75117       15.46278        2.44326
 C        7.72482       15.65552        0.77292
 C        7.93462       17.29614        2.60512
 C        9.55139       17.36666        0.72071
 C        7.04717       14.51303        3.44703
 C        7.02188       16.16046        5.45002
 C        8.83217       16.34470        3.45982
 C        8.79471       17.97170        5.43248
 C        9.89076       15.36411        6.09411
 C        7.95342       15.38385        4.36053
 C        7.97642       17.03168        6.29089
 C        9.67988       17.18788        4.45702
 C        7.25596       14.23687        7.04041
 C        7.15516       15.75052        9.07307
 C        8.91870       16.16607        7.12838
 C        8.71014       17.73644        9.15848
 C        9.94915       15.21297        9.73076
 C        8.08524       15.13702        7.97716
 C        7.95515       16.70391        9.97358
 C        9.67968       17.05949        8.16021
 C        8.95485       15.86278       10.75345
 C        8.47218       16.79921       13.06141
 C        9.53986       16.65381       11.94648
 C       13.33286        1.44140       -0.14801
 C       12.96630        3.39321        1.53250
 C       14.04691        2.30774        0.90204
 C       11.45178        3.60202       -0.59667
 C       11.10672        5.28500        1.44299
 C       13.28145        5.18296       -0.17431
 C       12.89354        7.05223        1.53737
 C       13.66676        4.29777        2.60881
 C       12.17749        4.36142        0.53126
 C       11.89503        6.22130        2.38090
 C       14.03401        6.04161        0.80618
 C       12.68937        5.33082        3.34210
 C       12.55370        7.25405        5.09498
 C       13.46582        6.24963        4.33025
 C       10.96818        6.93371       -0.29195
 C       10.93798        8.97647        1.42240
 C       12.89183        8.73147       -0.29021
 C       12.72388       10.75016        1.43446
 C       13.71893        7.98568        2.48674
 C       11.90570        7.93472        0.54883
 C       11.82060        9.88706        2.33723
 C       13.73845        9.70652        0.58841
 C       10.92425        7.20583        3.20226
 C       10.85398        9.08606        4.98919
 C       12.72857        8.98049        3.27572
 C       12.66923       10.86500        5.03554
 C       13.39872        8.14709        6.04883
 C       11.75536        8.13189        4.13794
 C       11.72336        9.99541        5.91011
 C       13.60038        9.90307        4.20167
 C       12.53128        9.12191        6.85289
 C       12.56832       10.93072        8.63725
 C       13.41357        9.98749        7.79439
 C       10.87897       10.82343       -0.29426
 C       10.73661       12.67931        1.41926
 C       12.55815       12.53790       -0.35311
 C       12.48364       14.47032        1.33502
 C       13.59687       11.69196        2.32085
 C       11.72786       11.69885        0.56032
 C       11.64769       13.58862        2.30694
 C       13.41706       13.46992        0.45032
 C       10.85870       10.85823        3.20849
 C       10.84458       12.69088        5.02464
 C       12.64080       12.66106        3.19435
 C       12.64150       14.50216        5.01093
 C       13.57460       11.76603        5.95706
 C       11.75893       11.77298        4.11386
 C       11.75821       13.59840        5.93877
 C       13.55343       13.58385        4.07585
 C       10.85908       10.90828        6.79371
 C       10.89626       12.67043        8.63597
 C       12.67327       12.69442        6.83793
 C       12.68214       14.48093        8.69752
 C       13.46151       11.78183        9.58135
 C       11.74729       11.80333        7.71429
 C       11.77381       13.56289        9.56849
 C       13.58861       13.58235        7.76829
 C       12.62201       12.69166       10.46293
 C       12.65121       14.40421       12.33792
 C       13.50950       13.54206       11.41758
 C       10.45282       14.56578       -0.34922
 C       10.58180       16.36962        1.46288
 C       12.12206       16.42032       -0.48306
 C       12.48668       18.07634        1.24392
 C       13.44210       15.39471        2.17702
 C       11.41984       15.42879        0.46492
 C       11.67677       17.21119        2.21126
 C       13.20788       17.17126        0.27638
 C       10.73406       14.51686        3.25183
 C       10.75275       16.29950        5.15475
 C       12.55457       16.31211        3.15063
 C       12.61065       18.02909        5.04526
 C       13.59060       15.40399        5.92109
 C       11.65780       15.41481        4.12704
 C       11.77441       17.16239        5.95568
 C       13.43627       17.17441        4.10636
 C       10.84969       14.46945        6.90074
 C       10.78318       16.21370        8.84752
 C       12.65391       16.29415        6.89740
 C       12.60419       17.98469        8.83506
 C       13.60823       15.36287        9.65627
 C       11.73152       15.38027        7.81545
 C       11.74104       17.09616        9.70687
 C       13.49523       17.15498        7.90754
 C       10.90105       14.36932       10.53081
 C       10.78923       15.96883       12.50758
 C       12.64099       16.23019       10.62588
 C       12.47775       17.84954       12.61675
 C       13.52132       15.26183       13.34344
 C       11.72683       15.27097       11.47403
 C       11.61772       16.89538       13.42736
 C       13.44302       17.08217       11.68565
 C       12.53590       16.01733       14.28824
 C       12.05405       17.04104       16.55420
 C       13.14737       16.79715       15.48056
 C       15.40914       -0.76110        0.53427
 C       14.60263        1.36645        2.04378
 C       17.13948        0.73422        1.43644
 C       16.44898        3.00691        2.56843
 C       16.19109       -0.02672        4.19075
 C       15.70295        0.20588        1.70304
 C       15.20744        2.25734        3.18471
 C       17.55757        1.97273        2.20656
 C       15.75454       -0.73366        2.93542
 C       15.42529        1.27807        4.40725
 C       15.27180        3.23370        5.96049
 C       15.97944        1.92691        5.65341
 C       15.29958        2.99637        0.31735
 C       14.79744        5.07970        1.88306
 C       17.17716        4.64951        0.71568
 C       16.58886        6.88528        2.04111
 C       17.11602        3.93937        3.57171
 C       15.92911        3.96086        1.34724
 C       15.54422        6.01508        2.87947
 C       17.66274        5.94414        1.38702
 C       14.23925        3.38260        3.70105
 C       14.08360        5.34011        5.38525
 C       16.16164        5.01804        4.05505
 C       16.05801        6.93469        5.62864
 C       15.91579        3.81776        7.19362
 C       14.97612        4.23935        4.77639
 C       14.90573        6.15246        6.41291
 C       16.94112        5.84070        5.05904
 C       15.25025        5.12305        7.56726
 C       15.29954        6.95652        9.21459
 C       15.95250        5.66442        8.78744
 C       15.13276        6.80523        0.03486
 C       14.70003        8.82518        1.60967
 C       16.93268        8.57648        0.12765
 C       16.40240       10.74723        1.52247
 C       17.32310        7.90370        2.91834
 C       15.82939        7.80437        0.94200
 C       15.51267        9.81421        2.50360
 C       17.43447        9.89570        0.72390
 C       14.52814        7.05597        3.53157
 C       14.42558        8.96985        5.21628
 C       16.35531        8.87537        3.58923
 C       16.27562       10.77024        5.22805
 C       16.89834        7.70938        6.62867
 C       15.36756        7.96429        4.48782
 C       15.31980        9.84334        6.15895
 C       17.17134        9.80497        4.47856
 C       14.05228        7.23104        7.07570
 C       14.09003        9.06191        8.79515
 C       16.05177        8.79532        7.27109
 C       16.09094       10.61461        8.98047
 C       16.02261        7.46567       10.44010
 C       14.92233        8.00606        8.08561
 C       14.97947        9.81373        9.80623
 C       16.91825        9.53724        8.28724
 C       15.37766        8.74732       10.91065
 C       15.47323       10.51272       12.64949
 C       16.11345        9.23896       12.14062
 C       14.68408       10.50975       -0.29891
 C       14.45007       12.57258        1.33762
 C       16.37150       12.36332       -0.50622
 C       16.11039       14.49871        0.99974
 C       17.18568       11.81212        2.31030
 C       15.46118       11.57585        0.50357
 C       15.33128       13.56363        2.14815
 C       16.96896       13.68666       -0.01865
 C       14.52777       10.78210        3.29154
 C       14.48183       12.66177        5.02970
 C       16.27112       12.68211        3.15951
 C       16.26785       14.50581        4.89454
 C       17.13172       11.64352        6.14768
 C       15.40678       11.72611        4.17508
 C       15.39593       13.56724        5.92580
 C       17.12131       13.63362        3.99684
 C       14.41579       10.82454        6.94642
 C       14.44487       12.63506        8.72895
 C       16.27123       12.60045        6.95236
 C       16.29919       14.39687        8.73361
 C       16.96539       11.34821       10.00833
 C       15.33336       11.67281        7.89451
 C       15.36745       13.47331        9.68610
 C       17.14171       13.45652        7.88222
 C       14.15763       10.84910       10.55686
 C       14.23515       12.60939       12.36887
 C       16.14280       12.41242       10.74100
 C       16.19345       14.19758       12.54096
 C       16.22570       10.99981       13.87266
 C       15.05232       11.59362       11.57422
 C       15.13316       13.36015       13.39276
 C       17.01756       13.15720       11.76565
 C       15.59331       12.26741       14.42577
 C       15.85073       14.02107       16.25996
 C       16.40433       12.74843       15.60815
 C       14.15273       14.29949       -0.56037
 C       14.22920       16.26696        1.07274
 C       15.60507       16.16861       -1.08501
 C       16.04062       18.05205        0.57413
 C       17.02391       15.52026        1.70771
 C       15.03780       15.32348        0.11512
 C       15.31366       17.18735        1.68818
 C       16.43922       17.37874       -0.73187
 C       14.41020       14.48696        3.06440
 C       14.46754       16.30924        4.88013
 C       16.20642       16.36919        2.71314
 C       16.37373       18.06893        4.59374
 C       17.17185       15.43310        5.71945
 C       15.33613       15.42378        3.88247
 C       15.52761       17.18748        5.59835
 C       17.08649       17.40780        3.41896
 C       14.49610       14.48255        6.83110
 C       14.51876       16.26691        8.69320
 C       16.33762       16.31683        6.65368
 C       16.47069       17.98174        8.55012
 C       17.18981       15.26605        9.64557
 C       15.41330       15.37605        7.71721
 C       15.57234       17.09853        9.48384
 C       17.22737       17.30127        7.42313
 C       14.47379       14.41534       10.56438
 C       14.46318       16.16554       12.46789
 C       16.34205       16.18500       10.53925
 C       16.43542       17.82954       12.48743
 C       17.08800       14.96851       13.53709
 C       15.38080       15.25906       11.51174
 C       15.49429       16.94175       13.34629
 C       17.22226       17.12442       11.38781
 C       14.32346       14.35104       14.25418
 C       14.37936       16.12498       16.15117
 C       16.26098       15.97340       14.36383
 C       16.39730       17.81231       16.13165
 C       16.86808       14.37437       17.35450
 C       15.24232       15.14694       15.25700
 C       15.21273       17.21541       16.88794
 C       17.17621       16.82080       15.27374
 H        0.21797       13.10960        0.40213
 H        1.36412       11.92215        0.29567
 H        1.33379       13.20174       -0.95639
 H        0.81054       13.84194        2.58258
 H       -0.36729       14.95718       -0.49591
 H       -1.55392       15.97317        0.27786
 H       -1.35798       14.33488        0.86705
 H       -1.03692       15.34112        3.21406
 H       -1.34185       16.87480        2.41971
 H        1.15232       16.94812       -0.17014
 H        0.04922       17.74464        0.79066
 H        0.38968       18.79897        2.64229
 H        1.75375       18.63862        3.68044
 H       -0.22240       17.31593        4.48195
 H        2.38707       18.39355        1.29830
 H        0.84175       15.00176        4.56797
 H        0.24587       17.05376        6.47121
 H        1.58582       16.83141        7.56233
 H        0.78423       15.41745        6.87144
 H        2.32141       17.50658        5.29942
 H        5.04320        8.86944       -0.92294
 H        4.07312        9.05005        0.54851
 H        5.27213        7.87343        0.52568
 H        4.57466       10.43156        2.18575
 H        3.01848       11.95052       -1.16685
 H        2.81644       10.55556       -0.08088
 H        4.18663       10.73502       -1.18832
 H        2.79538       12.09287        2.19858
 H        4.54139       13.65975       -0.78170
 H        5.74137       12.76636       -1.02401
 H        4.72141       11.98943        3.99587
 H        4.82707       13.48751        5.91953
 H        2.19661       15.59967       -0.24537
 H        3.30616       14.68367       -0.80797
 H        4.87082       16.66796       -0.72366
 H        3.86540       17.66647        0.09085
 H        4.29097       18.98230        1.80150
 H        5.60573       18.86226        2.86796
 H        3.61115       17.83573        3.79773
 H        6.21813       18.27515        0.56174
 H        2.85307       13.58641        4.22748
 H        3.06292       14.83122        6.36504
 H        4.26815       18.37985        5.51495
 H        5.54547       18.31988        6.61209
 H        3.61888       17.07420        7.45856
 H        6.30347       17.95228        4.45573
 H        4.72577       14.81898        7.81849
 H        3.92705       16.99366        9.50096
 H        5.22945       16.93880       10.66172
 H        4.52972       15.43071       10.06632
 H        6.04608       17.45844        8.38968
 H        9.24638        4.08007        0.36001
 H        9.01586        5.11816       -1.05660
 H        8.03492        5.23161        0.41976
 H        8.44936        6.66117        2.03640
 H        8.13952        6.93097       -1.35443
 H        6.91011        8.09123       -1.32029
 H        6.77208        6.69075       -0.24694
 H        6.73352        8.33583        2.09628
 H        9.75786        8.69338       -1.11600
 H        8.75631        9.78592       -1.10373
 H        8.46618        8.41729        3.83089
 H        8.45520       10.22307        5.64263
 H        7.25257       10.21309       -1.05679
 H        6.21825       11.25875       -0.91891
 H        8.05714       13.26082       -0.93625
 H        9.13383       12.25605       -1.17707
 H        6.59178       10.22661        3.88048
 H        6.65019       11.92060        5.73449
 H        8.50903       11.94451        7.49169
 H        8.56049       13.56674        9.37261
 H        7.19312       14.59129       -1.03417
 H        6.07200       15.51759       -0.56981
 H        7.72761       17.49359       -0.40534
 H        8.72440       16.41931       -1.09794
 H        8.14629       18.93487        1.19526
 H        9.44439       18.86594        2.29573
 H        7.46024       18.03769        3.20926
 H       10.05308       18.07515        0.06236
 H        8.15477       18.68786        4.91307
 H        9.39802       18.65365        6.03546
 H        7.39800       17.68050        6.93036
 H       10.13497       18.03016        3.98516
 H        6.71832       13.49356        7.64955
 H        6.81900       14.90612        9.69654
 H        8.01306       18.40583        8.64760
 H        9.25560       18.42763        9.80684
 H        7.28721       17.22959       10.65621
 H       10.10182       17.94134        7.72009
 H        8.40114       15.02952       11.21563
 H        7.59887       17.35971       12.71755
 H        8.85892       17.34118       13.92857
 H        8.12569       15.82010       13.40997
 H        9.77706       17.67893       11.66647
 H       13.48989        1.81661       -1.16179
 H       12.26975        1.33850        0.07951
 H       13.63922        0.41220       -0.19741
 H       12.20023        2.78959        2.04198
 H       12.13547        3.16641       -1.32107
 H       10.87894        4.25729       -1.24950
 H       10.79393        2.82045       -0.20870
 H       10.54041        4.57865        2.06891
 H       13.90978        4.52100       -0.73081
 H       13.03518        5.76888       -1.05479
 H       11.96331        4.73914        3.92091
 H       11.83693        6.67654        5.69965
 H       11.49588        6.25294       -0.91056
 H       10.46935        7.30223       -1.16608
 H       13.47843        8.03415       -0.83138
 H       12.52426        9.14167       -1.21926
 H       10.26714        6.57772        3.82224
 H       10.20392        8.46533        5.62471
 H       11.82681        8.54092        7.46941
 H       11.87742       10.33409        9.25488
 H       11.43054       10.26518       -1.00582
 H       10.42120       11.35873       -1.09455
 H       11.99998       13.00196       -1.13554
 H       13.11083       11.96919       -1.06217
 H       10.22091       10.27729        7.43206
 H       10.27736       12.01286        9.26726
 H       11.95119       12.06903       11.07748
 H       12.01837       13.73091       12.93948
 H        9.77291       15.14726       -0.92411
 H       10.87305       14.13288       -1.24035
 H       12.44756       16.01680       -1.43488
 H       11.41521       17.14463       -0.89624
 H       11.84049       18.77118        0.69620
 H       13.15088       18.76049        1.77427
 H       11.23606       18.00649        2.76470
 H       13.69912       17.82360       -0.44832
 H       11.98983       18.73887        4.49248
 H       13.24078       18.70888        5.62480
 H       11.27402       17.92740        6.50777
 H       13.92890       17.95568        3.57378
 H       11.98974       18.68598        8.26423
 H       13.20994       18.65988        9.44599
 H       11.15794       17.78673       10.29932
 H       14.00499       17.95284        7.41246
 H       10.31737       13.66492       11.14501
 H       10.38185       15.16643       13.14420
 H       11.84639       18.53796       12.04762
 H       13.04712       18.51934       13.26802
 H       10.95389       17.48080       14.06510
 H       13.95115       17.91478       11.24129
 H       11.89734       15.24911       14.75313
 H       11.23630       17.65446       16.16634
 H       12.45213       17.56725       17.42702
 H       11.62852       16.09483       16.90617
 H       13.43426       17.80097       15.16229
 H       16.15385       -1.56792        0.49623
 H       15.48094       -0.26639       -0.44005
 H       14.43629       -1.25100        0.64654
 H       13.71940        0.84442        2.44239
 H       17.87130       -0.05854        1.65172
 H       17.30358        0.91245        0.36691
 H       17.27372        0.12580        4.18729
 H       16.01687       -0.69844        5.04214
 H       18.40193        2.42507        1.68004
 H       18.03999        1.64137        3.13242
 H       16.43686       -1.57697        2.76164
 H       14.76401       -1.17836        3.09898
 H       14.41040        0.94468        4.68118
 H       14.27207        2.91033        6.29912
 H       17.06755        2.02567        5.61718
 H       15.81850        1.24166        6.49965
 H       15.17676        3.44355       -0.66334
 H       16.01789        2.24780        0.00713
 H       17.03493        4.80016       -0.35951
 H       18.03796        3.98138        0.67583
 H       18.05158        4.33038        3.18740
 H       17.51571        3.39076        4.42015
 H       18.29036        6.43422        0.64558
 H       18.43307        5.73040        2.13001
 H       13.37907        2.88613        4.17597
 H       13.24923        4.85020        5.91211
 H       17.00351        3.89055        7.11001
 H       15.77804        3.10964        8.02540
 H       17.90813        6.15418        4.68549
 H       17.32221        5.22168        5.86305
 H       14.26348        4.80342        7.94730
 H       14.32206        6.62567        9.61003
 H       17.03604        5.73835        8.66515
 H       15.84350        4.93438        9.60447
 H       15.82857        6.10373       -0.38543
 H       14.88315        7.22878       -0.93220
 H       16.64218        8.69011       -0.92129
 H       17.83300        7.99491       -0.04508
 H       18.11355        8.38388        2.36693
 H       17.98166        7.46982        3.64838
 H       17.92320       10.41965       -0.09248
 H       18.32941        9.75833        1.33312
 H       17.86365        8.01823        6.24399
 H       17.29159        7.05126        7.39347
 H       18.00049       10.24881        3.96211
 H       17.80331        9.28593        5.16809
 H       13.23571        6.73622        7.62641
 H       13.28652        8.55383        9.35366
 H       17.10474        7.54116       10.30690
 H       15.92259        6.71504       11.23949
 H       17.89028        9.84711        7.91706
 H       17.30869        8.84722        9.02341
 H       14.40752        8.40483       11.31450
 H       14.51346       10.15727       13.06638
 H       17.19368        9.31969       11.99587
 H       16.02482        8.47260       12.92621
 H       14.25505       10.84782       -1.23251
 H       15.35583        9.84799       -0.80394
 H       17.21041       11.79180       -0.89088
 H       15.86202       12.47157       -1.46589
 H       17.78390       12.41438        1.65509
 H       18.03986       11.44642        2.85365
 H       17.20511       14.27069       -0.90900
 H       17.99292       13.55123        0.34172
 H       17.99536       12.08777        5.68883
 H       17.73410       11.05372        6.79852
 H       17.77686       14.24833        3.42845
 H       17.94402       13.14979        4.48094
 H       17.93192       11.67602        9.64102
 H       17.36718       10.64279       10.72318
 H       17.97812       13.94199        7.42167
 H       17.77264       12.84613        8.48590
 H       13.36676       10.32396       11.11794
 H       13.46388       12.06189       12.93567
 H       17.30144       11.08953       13.70152
 H       16.16199       10.22118       14.64852
 H       17.95528       13.52649       11.37380
 H       17.45908       12.45226       12.45842
 H       14.65655       11.89968       14.88077
 H       14.96995       13.66560       16.81893
 H       17.46582       12.83200       15.35772
 H       16.39203       11.95240       16.36944
 H       13.47618       14.70263       -1.29044
 H       14.69334       13.71479       -1.28117
 H       14.76780       16.52979       -1.69671
 H       16.14999       15.56096       -1.81352
 H       15.36195       18.87696        0.31380
 H       16.91729       18.57923        0.95561
 H       17.49658       16.16800        0.97755
 H       17.96152       15.10656        2.05751
 H       14.89790       18.01132        2.23113
 H       16.36930       18.11292       -1.54553
 H       17.50059       17.10679       -0.72155
 H       15.69607       18.82731        4.18002
 H       17.10599       18.69268        5.10968
 H       17.78377       16.04999        5.09125
 H       18.02151       14.94136        6.15424
 H       15.06584       17.99854        6.12606
 H       17.38415       18.22527        2.76064
 H       18.07254       17.00615        3.65958
 H       15.82554       18.74917        8.10297
 H       17.18065       18.58884        9.11528
 H       17.91600       15.83113        9.09134
 H       17.91426       14.69545       10.19027
 H       15.09490       17.89726       10.01682
 H       17.61854       18.10300        6.79808
 H       18.17364       16.85214        7.72038
 H       15.83210       18.62056       12.02558
 H       17.13406       18.38927       13.11569
 H       17.93567       15.43242       13.05255
 H       17.62766       14.29108       14.18942
 H       14.94802       17.67275       13.93195
 H       17.69985       17.90347       10.79332
 H       18.10830       16.61838       11.76065
 H       13.60140       13.77575       14.85536
 H       13.94483       15.50402       16.94807
 H       16.04008       18.63935       15.50729
 H       17.08200       18.27687       16.85219
 H       17.87820       14.50544       16.95784
 H       16.94113       13.54087       18.06616
 H       16.60333       15.23488       17.95558
 H       15.56455       16.82079       17.84259
 H       14.57188       18.04990       17.19816
 H       17.92414       17.36605       14.68880
 H       17.78790       16.19237       15.91608
}
optimize('scf_template')
