# PYTHONPATH must include directory above plugin directory.
#     Define either externally or here, then import plugin.
sys.path.insert(0, '.')

import os

#Set this up like a dictionary
SI = {
'name': 'diamond',
'basis': 'sto-3g/sto-3g',
'frags': '-1/1',
'methods': 'scf/scf',
'scratch': 'scr'
}

sifile = open('SI.txt', 'w')
sifile.write(SI['name']+'\n')
sifile.write(SI['frags']+'\n')
sifile.write(SI['methods']+'\n')
sifile.write(SI['basis']+'\n')
sifile.write(SI['scratch']+'\n')
sifile.close()
import scf_template

molecule {
0 1
   C        1.78339       12.48377        0.00000
   C        1.78339       14.26716        1.78340
   C        2.67509       13.37546        0.89170
   C        0.00000       14.26716        0.00000
   C        0.00000       16.05056        1.78340
   C        1.78339       16.05056        0.00000
   C        1.78339       17.83395        1.78340
   C        2.67509       15.15886        2.67509
   C        0.89170       15.15886        0.89170
   C        0.89170       16.94225        2.67509
   C        2.67509       16.94225        0.89170
   C        1.78339       16.05056        3.56679
   C        1.78339       17.83395        5.35019
   C        2.67509       16.94225        4.45849
   C        5.35018        8.91698        0.00000
   C        5.35018       10.70037        1.78340
   C        6.24188        9.80867        0.89170
   C        3.56679       10.70037        0.00000
   C        3.56679       12.48377        1.78340
   C        5.35018       12.48377        0.00000
   C        5.35018       14.26716        1.78340
   C        6.24188       11.59207        2.67509
   C        4.45849       11.59207        0.89170
   C        4.45849       13.37546        2.67509
   C        6.24188       13.37546        0.89170
   C        5.35018       12.48377        3.56679
   C        5.35018       14.26716        5.35019
   C        6.24188       13.37546        4.45849
   C        3.56679       14.26716        0.00000
   C        3.56679       16.05056        1.78340
   C        5.35018       16.05056        0.00000
   C        5.35018       17.83395        1.78340
   C        6.24188       15.15886        2.67509
   C        4.45849       15.15886        0.89170
   C        4.45849       16.94225        2.67509
   C        6.24188       16.94225        0.89170
   C        3.56679       14.26716        3.56679
   C        3.56679       16.05056        5.35019
   C        5.35018       16.05056        3.56679
   C        5.35018       17.83395        5.35019
   C        6.24188       15.15886        6.24188
   C        4.45849       15.15886        4.45849
   C        4.45849       16.94225        6.24188
   C        6.24188       16.94225        4.45849
   C        5.35018       16.05056        7.13358
   C        5.35018       17.83395        8.91698
   C        6.24188       16.94225        8.02528
   C        8.91698        5.35019        0.00000
   C        8.91697        7.13358        1.78340
   C        9.80867        6.24188        0.89170
   C        7.13358        7.13358        0.00000
   C        7.13358        8.91698        1.78340
   C        8.91697        8.91698        0.00000
   C        8.91697       10.70037        1.78340
   C        9.80867        8.02528        2.67509
   C        8.02528        8.02528        0.89170
   C        8.02528        9.80867        2.67509
   C        9.80867        9.80867        0.89170
   C        8.91697        8.91698        3.56679
   C        8.91697       10.70037        5.35019
   C        9.80867        9.80867        4.45849
   C        7.13358       10.70037        0.00000
   C        7.13358       12.48377        1.78340
   C        8.91697       12.48377        0.00000
   C        8.91697       14.26716        1.78340
   C        9.80867       11.59207        2.67509
   C        8.02528       11.59207        0.89170
   C        8.02528       13.37546        2.67509
   C        9.80867       13.37546        0.89170
   C        7.13358       10.70037        3.56679
   C        7.13358       12.48377        5.35019
   C        8.91697       12.48377        3.56679
   C        8.91697       14.26716        5.35019
   C        9.80867       11.59207        6.24188
   C        8.02528       11.59207        4.45849
   C        8.02528       13.37546        6.24188
   C        9.80867       13.37546        4.45849
   C        8.91697       12.48377        7.13358
   C        8.91697       14.26716        8.91698
   C        9.80867       13.37546        8.02528
   C        7.13358       14.26716        0.00000
   C        7.13358       16.05056        1.78340
   C        8.91697       16.05056        0.00000
   C        8.91697       17.83395        1.78340
   C        9.80867       15.15886        2.67509
   C        8.02528       15.15886        0.89170
   C        8.02528       16.94225        2.67509
   C        9.80867       16.94225        0.89170
   C        7.13358       14.26716        3.56679
   C        7.13358       16.05056        5.35019
   C        8.91697       16.05056        3.56679
   C        8.91697       17.83395        5.35019
   C        9.80867       15.15886        6.24188
   C        8.02528       15.15886        4.45849
   C        8.02528       16.94225        6.24188
   C        9.80867       16.94225        4.45849
   C        7.13358       14.26716        7.13358
   C        7.13358       16.05056        8.91698
   C        8.91697       16.05056        7.13358
   C        8.91697       17.83395        8.91698
   C        9.80867       15.15886        9.80867
   C        8.02528       15.15886        8.02528
   C        8.02528       16.94225        9.80867
   C        9.80867       16.94225        8.02528
   C        8.91697       16.05055       10.70037
   C        8.91697       17.83395       12.48377
   C        9.80867       16.94225       11.59207
   C       12.48377        1.78340        0.00000
   C       12.48377        3.56679        1.78340
   C       13.37546        2.67509        0.89170
   C       10.70037        3.56679        0.00000
   C       10.70037        5.35019        1.78340
   C       12.48377        5.35019        0.00000
   C       12.48376        7.13358        1.78340
   C       13.37546        4.45849        2.67509
   C       11.59207        4.45849        0.89170
   C       11.59207        6.24188        2.67509
   C       13.37546        6.24188        0.89170
   C       12.48376        5.35018        3.56679
   C       12.48376        7.13358        5.35019
   C       13.37546        6.24188        4.45849
   C       10.70037        7.13358        0.00000
   C       10.70037        8.91698        1.78340
   C       12.48376        8.91698        0.00000
   C       12.48376       10.70037        1.78340
   C       13.37546        8.02528        2.67509
   C       11.59207        8.02528        0.89170
   C       11.59207        9.80867        2.67509
   C       13.37546        9.80867        0.89170
   C       10.70037        7.13358        3.56679
   C       10.70037        8.91698        5.35019
   C       12.48376        8.91698        3.56679
   C       12.48376       10.70037        5.35019
   C       13.37546        8.02528        6.24188
   C       11.59207        8.02528        4.45849
   C       11.59207        9.80867        6.24188
   C       13.37546        9.80867        4.45849
   C       12.48376        8.91697        7.13358
   C       12.48376       10.70037        8.91698
   C       13.37546        9.80867        8.02528
   C       10.70037       10.70037        0.00000
   C       10.70037       12.48377        1.78340
   C       12.48376       12.48377        0.00000
   C       12.48376       14.26716        1.78340
   C       13.37546       11.59207        2.67509
   C       11.59207       11.59207        0.89170
   C       11.59207       13.37546        2.67509
   C       13.37546       13.37546        0.89170
   C       10.70037       10.70037        3.56679
   C       10.70037       12.48377        5.35019
   C       12.48376       12.48377        3.56679
   C       12.48376       14.26716        5.35019
   C       13.37546       11.59207        6.24188
   C       11.59207       11.59207        4.45849
   C       11.59207       13.37546        6.24188
   C       13.37546       13.37546        4.45849
   C       10.70037       10.70037        7.13358
   C       10.70037       12.48376        8.91698
   C       12.48376       12.48377        7.13358
   C       12.48376       14.26716        8.91698
   C       13.37546       11.59207        9.80867
   C       11.59207       11.59207        8.02528
   C       11.59207       13.37546        9.80867
   C       13.37546       13.37546        8.02528
   C       12.48376       12.48376       10.70037
   C       12.48376       14.26716       12.48377
   C       13.37546       13.37546       11.59207
   C       10.70037       14.26716        0.00000
   C       10.70037       16.05056        1.78340
   C       12.48376       16.05056        0.00000
   C       12.48376       17.83395        1.78340
   C       13.37546       15.15886        2.67509
   C       11.59207       15.15886        0.89170
   C       11.59207       16.94225        2.67509
   C       13.37546       16.94225        0.89170
   C       10.70037       14.26716        3.56679
   C       10.70037       16.05056        5.35019
   C       12.48376       16.05056        3.56679
   C       12.48376       17.83395        5.35019
   C       13.37546       15.15886        6.24188
   C       11.59207       15.15886        4.45849
   C       11.59207       16.94225        6.24188
   C       13.37546       16.94225        4.45849
   C       10.70037       14.26716        7.13358
   C       10.70037       16.05056        8.91698
   C       12.48376       16.05056        7.13358
   C       12.48376       17.83395        8.91698
   C       13.37546       15.15886        9.80867
   C       11.59207       15.15886        8.02528
   C       11.59207       16.94225        9.80867
   C       13.37546       16.94225        8.02528
   C       10.70037       14.26716       10.70037
   C       10.70037       16.05055       12.48377
   C       12.48376       16.05055       10.70037
   C       12.48376       17.83395       12.48377
   C       13.37546       15.15886       13.37546
   C       11.59207       15.15886       11.59207
   C       11.59207       16.94225       13.37546
   C       13.37546       16.94225       11.59207
   C       12.48376       16.05055       14.26716
   C       12.48376       17.83395       16.05056
   C       13.37546       16.94225       15.15886
   C       14.26716        0.00000        0.00000
   C       14.26716        1.78339        1.78340
   C       16.05056        1.78340        0.00000
   C       16.05056        3.56679        1.78340
   C       16.94225        0.89170        2.67509
   C       15.15886        0.89170        0.89170
   C       15.15886        2.67509        2.67509
   C       16.94225        2.67509        0.89170
   C       16.05056        0.00000        1.78340
   C       16.05056        1.78339        3.56679
   C       16.05056        3.56679        5.35019
   C       16.94225        2.67509        4.45849
   C       14.26716        3.56679        0.00000
   C       14.26716        5.35019        1.78340
   C       16.05056        5.35019        0.00000
   C       16.05056        7.13358        1.78340
   C       16.94225        4.45849        2.67509
   C       15.15886        4.45849        0.89170
   C       15.15886        6.24188        2.67509
   C       16.94225        6.24188        0.89170
   C       14.26716        3.56679        3.56679
   C       14.26716        5.35018        5.35019
   C       16.05056        5.35018        3.56679
   C       16.05055        7.13358        5.35019
   C       16.94225        4.45849        6.24188
   C       15.15886        4.45849        4.45849
   C       15.15886        6.24188        6.24188
   C       16.94225        6.24188        4.45849
   C       16.05055        5.35018        7.13358
   C       16.05055        7.13358        8.91698
   C       16.94225        6.24188        8.02528
   C       14.26716        7.13358        0.00000
   C       14.26716        8.91698        1.78340
   C       16.05056        8.91698        0.00000
   C       16.05055       10.70037        1.78340
   C       16.94225        8.02528        2.67509
   C       15.15886        8.02528        0.89170
   C       15.15886        9.80867        2.67509
   C       16.94225        9.80867        0.89170
   C       14.26716        7.13358        3.56679
   C       14.26716        8.91698        5.35019
   C       16.05055        8.91698        3.56679
   C       16.05055       10.70037        5.35019
   C       16.94225        8.02528        6.24188
   C       15.15886        8.02528        4.45849
   C       15.15886        9.80867        6.24188
   C       16.94225        9.80867        4.45849
   C       14.26716        7.13358        7.13358
   C       14.26716        8.91697        8.91698
   C       16.05055        8.91697        7.13358
   C       16.05055       10.70037        8.91698
   C       16.94225        8.02528        9.80867
   C       15.15886        8.02528        8.02528
   C       15.15886        9.80867        9.80867
   C       16.94225        9.80867        8.02528
   C       16.05055        8.91697       10.70037
   C       16.05055       10.70037       12.48377
   C       16.94225        9.80867       11.59207
   C       14.26716       10.70037        0.00000
   C       14.26716       12.48377        1.78340
   C       16.05055       12.48377        0.00000
   C       16.05055       14.26716        1.78340
   C       16.94225       11.59207        2.67509
   C       15.15886       11.59207        0.89170
   C       15.15886       13.37546        2.67509
   C       16.94225       13.37546        0.89170
   C       14.26716       10.70037        3.56679
   C       14.26716       12.48377        5.35019
   C       16.05055       12.48377        3.56679
   C       16.05055       14.26716        5.35019
   C       16.94225       11.59207        6.24188
   C       15.15886       11.59207        4.45849
   C       15.15886       13.37546        6.24188
   C       16.94225       13.37546        4.45849
   C       14.26716       10.70037        7.13358
   C       14.26716       12.48376        8.91698
   C       16.05055       12.48377        7.13358
   C       16.05055       14.26716        8.91698
   C       16.94225       11.59207        9.80867
   C       15.15886       11.59207        8.02528
   C       15.15886       13.37546        9.80867
   C       16.94225       13.37546        8.02528
   C       14.26716       10.70037       10.70037
   C       14.26716       12.48376       12.48377
   C       16.05055       12.48376       10.70037
   C       16.05055       14.26716       12.48377
   C       16.94225       11.59207       13.37546
   C       15.15886       11.59207       11.59207
   C       15.15886       13.37546       13.37546
   C       16.94225       13.37546       11.59207
   C       16.05055       12.48376       14.26716
   C       16.05055       14.26716       16.05056
   C       16.94225       13.37546       15.15886
   C       14.26716       14.26716        0.00000
   C       14.26716       16.05056        1.78340
   C       16.05055       16.05056        0.00000
   C       16.05055       17.83395        1.78340
   C       16.94225       15.15886        2.67509
   C       15.15886       15.15886        0.89170
   C       15.15886       16.94225        2.67509
   C       16.94225       16.94225        0.89170
   C       14.26716       14.26716        3.56679
   C       14.26716       16.05056        5.35019
   C       16.05055       16.05056        3.56679
   C       16.05055       17.83395        5.35019
   C       16.94225       15.15886        6.24188
   C       15.15886       15.15886        4.45849
   C       15.15886       16.94225        6.24188
   C       16.94225       16.94225        4.45849
   C       14.26716       14.26716        7.13358
   C       14.26716       16.05056        8.91698
   C       16.05055       16.05056        7.13358
   C       16.05055       17.83395        8.91698
   C       16.94225       15.15886        9.80867
   C       15.15886       15.15886        8.02528
   C       15.15886       16.94225        9.80867
   C       16.94225       16.94225        8.02528
   C       14.26716       14.26716       10.70037
   C       14.26716       16.05055       12.48377
   C       16.05055       16.05055       10.70037
   C       16.05055       17.83395       12.48377
   C       16.94225       15.15886       13.37546
   C       15.15886       15.15886       11.59207
   C       15.15886       16.94225       13.37546
   C       16.94225       16.94225       11.59207
   C       14.26716       14.26716       14.26716
   C       14.26716       16.05055       16.05056
   C       16.05055       16.05055       14.26716
   C       16.05055       17.83395       16.05056
   C       16.94225       15.15886       16.94225
   C       15.15886       15.15886       15.15886
   C       15.15886       16.94225       16.94225
   C       16.94225       16.94225       15.15886
   H        1.16563       13.10154       -0.61776
   H        1.16562       11.86601        0.61776
   H        2.40115       11.86600       -0.61777
   H        1.16562       13.64940        2.40117
   H        0.61777       13.64940       -0.61776
   H       -0.61776       14.88492       -0.61777
   H       -0.61777       13.64940        0.61776
   H       -0.61776       15.43280        2.40117
   H       -0.61777       16.66832        1.16564
   H        2.40115       15.43280       -0.61777
   H        1.16562       16.66833       -0.61776
   H        1.16562       18.45171        1.16564
   H        2.40115       18.45172        2.40116
   H        0.27394       17.56001        3.29285
   H        3.29286       17.56001        0.27393
   H        1.16562       15.43280        4.18456
   H        1.16562       18.45171        4.73242
   H        2.40115       18.45172        5.96795
   H        1.16563       17.21619        5.96796
   H        3.29286       17.56001        3.84072
   H        5.96795        8.29922       -0.61776
   H        4.73242        9.53475       -0.61776
   H        4.73241        8.29922        0.61776
   H        4.73241       10.08261        2.40117
   H        2.94903       11.31814       -0.61777
   H        2.94902       10.08261        0.61776
   H        4.18455       10.08260       -0.61776
   H        2.94902       11.86601        2.40117
   H        4.73241       13.10154       -0.61776
   H        5.96794       11.86601       -0.61777
   H        4.73241       11.86601        4.18456
   H        4.73241       13.64940        5.96796
   H        2.94903       14.88492       -0.61776
   H        4.18455       13.64940       -0.61776
   H        5.96794       15.43280       -0.61777
   H        4.73241       16.66833       -0.61776
   H        4.73241       18.45171        1.16564
   H        5.96794       18.45172        2.40116
   H        3.84073       17.56001        3.29285
   H        6.85965       17.56001        0.27393
   H        2.94903       13.64940        4.18455
   H        2.94902       15.43280        5.96796
   H        4.73241       18.45171        4.73243
   H        5.96794       18.45172        5.96795
   H        3.84073       17.56001        6.85964
   H        6.85965       17.56001        3.84072
   H        4.73241       15.43280        7.75135
   H        4.73241       18.45171        8.29921
   H        5.96794       18.45172        9.53474
   H        4.73242       17.21619        9.53475
   H        6.85965       17.56001        7.40751
   H        9.53475        4.73243       -0.61776
   H        8.29922        5.96796       -0.61777
   H        8.29921        4.73242        0.61776
   H        8.29920        6.51582        2.40117
   H        7.75135        6.51582       -0.61776
   H        6.51582        7.75134       -0.61777
   H        6.51581        6.51582        0.61776
   H        6.51581        8.29922        2.40117
   H        9.53473        8.29922       -0.61777
   H        8.29920        9.53475       -0.61776
   H        8.29920        8.29922        4.18456
   H        8.29920       10.08261        5.96796
   H        7.75134       10.08261       -0.61776
   H        6.51582       11.31813       -0.61776
   H        8.29920       13.10154       -0.61776
   H        9.53473       11.86601       -0.61777
   H        6.51582       10.08261        4.18455
   H        6.51581       11.86601        5.96796
   H        8.29920       11.86601        7.75135
   H        8.29920       13.64940        9.53475
   H        7.75134       13.64940       -0.61776
   H        6.51582       14.88492       -0.61776
   H        8.29920       16.66833       -0.61776
   H        9.53473       15.43280       -0.61777
   H        8.29920       18.45171        1.16564
   H        9.53473       18.45172        2.40116
   H        7.40752       17.56001        3.29285
   H       10.42644       17.56001        0.27393
   H        8.29920       18.45171        4.73243
   H        9.53473       18.45172        5.96795
   H        7.40752       17.56001        6.85964
   H       10.42644       17.56001        3.84072
   H        6.51582       13.64940        7.75134
   H        6.51581       15.43280        9.53475
   H        8.29920       18.45171        8.29922
   H        9.53473       18.45172        9.53474
   H        7.40752       17.56002       10.42644
   H       10.42644       17.56001        7.40751
   H        8.29920       15.43278       11.31813
   H        8.29921       18.45171       11.86600
   H        9.53473       18.45172       13.10153
   H        8.29921       17.21619       13.10154
   H       10.42643       17.56001       10.97431
   H       11.86601        2.40117       -0.61776
   H       11.86600        1.16563        0.61776
   H       13.10154        1.16564       -0.61777
   H       11.86601        2.94902        2.40117
   H       11.31814        2.94903       -0.61776
   H       10.08261        4.18455       -0.61777
   H       10.08260        2.94903        0.61776
   H       10.08260        4.73243        2.40117
   H       13.10154        4.73243       -0.61776
   H       11.86601        5.96795       -0.61777
   H       11.86599        4.73241        4.18455
   H       11.86599        6.51582        5.96796
   H       11.31813        6.51582       -0.61776
   H       10.08261        7.75134       -0.61776
   H       13.10152        8.29922       -0.61777
   H       11.86599        9.53475       -0.61776
   H       10.08261        6.51582        4.18455
   H       10.08260        8.29922        5.96796
   H       11.86599        8.29920        7.75134
   H       11.86599       10.08261        9.53475
   H       11.31813       10.08261       -0.61776
   H       10.08261       11.31813       -0.61776
   H       11.86599       13.10154       -0.61776
   H       13.10152       11.86601       -0.61777
   H       10.08261       10.08261        7.75134
   H       10.08261       11.86599        9.53475
   H       11.86599       11.86599       11.31813
   H       11.86599       13.64940       13.10154
   H       10.08261       14.88492       -0.61776
   H       11.31813       13.64940       -0.61776
   H       13.10152       15.43280       -0.61777
   H       11.86599       16.66833       -0.61776
   H       11.86599       18.45171        1.16564
   H       13.10152       18.45172        2.40116
   H       10.97431       17.56001        3.29285
   H       13.99323       17.56001        0.27393
   H       11.86599       18.45171        4.73243
   H       13.10152       18.45172        5.96795
   H       10.97431       17.56001        6.85964
   H       13.99323       17.56001        3.84072
   H       11.86599       18.45171        8.29922
   H       13.10152       18.45172        9.53474
   H       10.97431       17.56002       10.42644
   H       13.99323       17.56001        7.40751
   H       10.08261       13.64940       11.31813
   H       10.08261       15.43278       13.10154
   H       11.86599       18.45171       11.86601
   H       13.10152       18.45172       13.10153
   H       10.97431       17.56002       13.99322
   H       13.99322       17.56001       10.97431
   H       11.86599       15.43278       14.88492
   H       11.86600       18.45171       15.43279
   H       13.10152       18.45172       16.66832
   H       11.86600       17.21619       16.66833
   H       13.99322       17.56001       14.54110
   H       14.88493       -0.61776       -0.61777
   H       13.64939        0.61776       -0.61776
   H       13.64940       -0.61777        0.61776
   H       13.64940        1.16562        2.40117
   H       16.66833        1.16564       -0.61776
   H       15.43280        2.40116       -0.61777
   H       17.56001        1.50947        2.05732
   H       17.56002        0.27394        3.29285
   H       17.56002        3.29285        0.27394
   H       17.56001        2.05732        1.50947
   H       16.66833       -0.61776        1.16564
   H       15.43280       -0.61777        2.40116
   H       15.43280        1.16562        4.18456
   H       15.43280        2.94902        5.96796
   H       17.56001        3.29285        3.84073
   H       17.56001        2.05732        5.07626
   H       13.64940        4.18455       -0.61776
   H       14.88492        2.94903       -0.61776
   H       15.43280        5.96796       -0.61776
   H       16.66832        4.73243       -0.61777
   H       17.56001        5.07626        2.05732
   H       17.56002        3.84073        3.29285
   H       17.56002        6.85964        0.27394
   H       17.56001        5.62411        1.50947
   H       13.64940        2.94903        4.18455
   H       13.64940        4.73241        5.96796
   H       17.56001        5.07626        5.62411
   H       17.56002        3.84073        6.85964
   H       17.56001        6.85965        3.84073
   H       17.56001        5.62411        5.07626
   H       15.43278        4.73241        7.75134
   H       15.43278        6.51582        9.53475
   H       17.56001        6.85964        7.40752
   H       17.56001        5.62412        8.64304
   H       14.88492        6.51582       -0.61776
   H       13.64940        7.75134       -0.61776
   H       15.43280        9.53475       -0.61776
   H       16.66832        8.29922       -0.61777
   H       17.56001        8.64305        2.05732
   H       17.56002        7.40752        3.29286
   H       17.56002       10.42644        0.27394
   H       17.56001        9.19090        1.50947
   H       17.56001        8.64305        5.62411
   H       17.56002        7.40752        6.85964
   H       17.56002       10.42643        3.84073
   H       17.56001        9.19090        5.07625
   H       13.64940        6.51582        7.75134
   H       13.64940        8.29920        9.53475
   H       17.56001        8.64305        9.19090
   H       17.56002        7.40752       10.42643
   H       17.56001       10.42643        7.40752
   H       17.56001        9.19091        8.64304
   H       15.43278        8.29920       11.31813
   H       15.43278       10.08261       13.10154
   H       17.56001       10.42643       10.97431
   H       17.56001        9.19091       12.20983
   H       13.64940       11.31813       -0.61776
   H       14.88492       10.08261       -0.61776
   H       16.66831       11.86601       -0.61777
   H       15.43278       13.10154       -0.61776
   H       17.56001       12.20983        2.05732
   H       17.56002       10.97431        3.29285
   H       17.56002       13.99322        0.27394
   H       17.56001       12.75769        1.50946
   H       17.56001       12.20983        5.62411
   H       17.56002       10.97431        6.85964
   H       17.56002       13.99322        3.84073
   H       17.56001       12.75769        5.07625
   H       17.56001       12.20984        9.19090
   H       17.56002       10.97431       10.42643
   H       17.56002       13.99322        7.40752
   H       17.56001       12.75769        8.64304
   H       13.64940       10.08261       11.31813
   H       13.64940       11.86599       13.10154
   H       17.56001       12.20984       12.75769
   H       17.56002       10.97431       13.99322
   H       17.56001       13.99322       10.97431
   H       17.56001       12.75770       12.20983
   H       15.43278       11.86599       14.88492
   H       15.43278       13.64940       16.66833
   H       17.56001       13.99322       14.54110
   H       17.56001       12.75770       15.77662
   H       13.64940       14.88492       -0.61776
   H       14.88492       13.64940       -0.61776
   H       15.43278       16.66833       -0.61776
   H       16.66831       15.43280       -0.61777
   H       15.43278       18.45171        1.16564
   H       16.66831       18.45172        2.40116
   H       17.56001       15.77662        2.05732
   H       17.56002       14.54110        3.29285
   H       14.54110       17.56001        3.29285
   H       17.56002       17.56001        0.27394
   H       17.56001       16.32448        1.50946
   H       15.43278       18.45171        4.73243
   H       16.66831       18.45172        5.96795
   H       17.56001       15.77662        5.62411
   H       17.56002       14.54110        6.85964
   H       14.54110       17.56001        6.85964
   H       17.56002       17.56001        3.84073
   H       17.56001       16.32448        5.07625
   H       15.43278       18.45171        8.29922
   H       16.66831       18.45172        9.53474
   H       17.56001       15.77663        9.19090
   H       17.56002       14.54110       10.42643
   H       14.54110       17.56002       10.42644