# PYTHONPATH must include directory above plugin directory.
#     Define either externally or here, then import plugin.
sys.path.insert(0, '.')

import os

memory 5 GB

#Set this up like a dictionary
SI = {
'name': 'bigdiamond',
'basis': 'cc-pvtz/cc-pvtz',
'frags': '1/1',
'methods': 'mp2/scf',
'scratch': 'scr'
}

sifile = open('SI.txt', 'w')
sifile.write(SI['name']+'\n')
sifile.write(SI['frags']+'\n')
sifile.write(SI['methods']+'\n')
sifile.write(SI['basis']+'\n')
sifile.write(SI['scratch']+'\n')
sifile.close()
import scf_template

molecule {
0 1
C 0.000000 0.000000 0.000000
H -0.905000 0.545000 -0.269000
H 0.544000 -0.269000 -0.905000
H -0.270000 -0.905000 0.545000
C 0.892000 0.892000 0.892000
C -0.000000 1.783000 1.783000
H -0.631000 2.412000 1.155000
H -0.629000 1.154000 2.413000
C 0.892000 2.675000 2.675000
C 1.783000 -0.000000 1.783000
H 1.155000 -0.631000 2.412000
H 2.413000 -0.629000 1.154000
C 2.675000 0.892000 2.675000
C 1.783000 1.783000 0.000000
H 2.412000 1.155000 -0.631000
H 1.154000 2.413000 -0.629000
C 2.675000 2.675000 0.892000
C 3.567000 1.783000 1.783000
H 4.196000 1.154000 1.154000
C 4.458000 2.675000 2.675000
C 24.968000 24.968000 0.000000
H 25.935000 24.486000 -0.143000
H 24.487000 25.111000 -0.968000
H 25.112000 25.935000 0.481000
C 23.184000 24.968000 1.783000
H 22.555000 25.598000 1.155000
H 23.814000 25.596000 2.413000
C 24.968000 23.184000 1.783000
H 25.598000 23.813000 2.412000
H 25.596000 22.555000 1.154000
C 21.401000 21.401000 0.000000
H 20.772000 22.029000 -0.631000
H 22.030000 20.771000 -0.629000
C 22.292000 22.292000 0.892000
C 21.401000 23.184000 1.783000
H 20.771000 23.813000 1.154000
C 22.292000 24.076000 2.675000
C 23.184000 21.401000 1.783000
H 23.813000 20.771000 1.154000
C 24.076000 22.292000 2.675000
C 23.184000 23.184000 0.000000
H 22.555000 23.814000 -0.629000
H 23.813000 22.555000 -0.631000
C 24.076000 24.076000 0.892000
C 19.617000 21.401000 1.783000
H 18.988000 22.030000 1.154000
C 20.509000 22.292000 2.675000
C 21.401000 19.617000 1.783000
H 22.030000 18.988000 1.154000
C 22.292000 20.509000 2.675000
C 17.834000 17.834000 0.000000
H 18.463000 17.204000 -0.629000
H 17.205000 18.463000 -0.631000
C 18.726000 18.726000 0.892000
C 17.834000 19.617000 1.783000
H 17.205000 20.247000 1.154000
C 18.726000 20.509000 2.675000
C 19.617000 17.834000 1.783000
H 20.247000 17.205000 1.154000
C 20.509000 18.726000 2.675000
C 19.617000 19.617000 0.000000
H 18.988000 20.247000 -0.629000
H 20.246000 18.989000 -0.631000
C 20.509000 20.509000 0.892000
C 16.051000 17.834000 1.783000
H 15.421000 18.463000 1.154000
C 16.942000 18.726000 2.675000
C 17.834000 16.051000 1.783000
H 18.463000 15.421000 1.154000
C 18.726000 16.942000 2.675000
C 14.267000 14.267000 0.000000
H 14.897000 13.638000 -0.629000
H 13.638000 14.896000 -0.631000
C 15.159000 15.159000 0.892000
C 14.267000 16.051000 1.783000
H 13.638000 16.680000 1.154000
C 15.159000 16.942000 2.675000
C 16.051000 14.267000 1.783000
H 16.680000 13.638000 1.154000
C 16.942000 15.159000 2.675000
C 16.051000 16.051000 0.000000
H 15.421000 16.680000 -0.629000
H 16.679000 15.422000 -0.631000
C 16.942000 16.942000 0.892000
C 12.484000 14.267000 1.783000
H 11.854000 14.896000 1.154000
C 13.375000 15.159000 2.675000
C 14.267000 12.484000 1.783000
H 14.896000 11.854000 1.154000
C 15.159000 13.375000 2.675000
C 10.700000 10.700000 0.000000
H 11.330000 10.071000 -0.629000
H 10.072000 11.329000 -0.631000
C 11.592000 11.592000 0.892000
C 10.700000 12.484000 1.783000
H 10.071000 13.113000 1.154000
C 11.592000 13.375000 2.675000
C 12.484000 10.700000 1.783000
H 13.113000 10.071000 1.154000
C 13.375000 11.592000 2.675000
C 12.484000 12.484000 0.000000
H 11.854000 13.113000 -0.629000
H 13.112000 11.855000 -0.631000
C 13.375000 13.375000 0.892000
C 8.917000 10.700000 1.783000
H 8.288000 11.330000 1.154000
C 9.809000 11.592000 2.675000
C 10.700000 8.917000 1.783000
H 11.330000 8.288000 1.154000
C 11.592000 9.809000 2.675000
C 7.134000 7.134000 0.000000
H 7.763000 6.504000 -0.629000
H 6.505000 7.762000 -0.631000
C 8.025000 8.025000 0.892000
C 7.134000 8.917000 1.783000
H 6.504000 9.546000 1.154000
C 8.025000 9.809000 2.675000
C 8.917000 7.134000 1.783000
H 9.546000 6.504000 1.154000
C 9.809000 8.025000 2.675000
C 8.917000 8.917000 0.000000
H 8.287000 9.546000 -0.629000
H 9.546000 8.288000 -0.631000
C 9.809000 9.809000 0.892000
C 5.350000 7.134000 1.783000
H 4.721000 7.763000 1.154000
C 6.242000 8.025000 2.675000
C 1.783000 3.567000 1.783000
H 1.154000 4.196000 1.154000
C 2.675000 4.458000 2.675000
C 7.134000 5.350000 1.783000
H 7.763000 4.721000 1.154000
C 8.025000 6.242000 2.675000
C 3.567000 3.567000 0.000000
H 2.937000 4.196000 -0.629000
H 4.195000 2.938000 -0.631000
C 4.458000 4.458000 0.892000
C 3.567000 5.350000 1.783000
H 2.937000 5.979000 1.154000
C 4.458000 6.242000 2.675000
C 5.350000 3.567000 1.783000
H 5.979000 2.937000 1.154000
C 6.242000 4.458000 2.675000
C 5.350000 5.350000 0.000000
H 4.721000 5.980000 -0.629000
H 5.979000 4.721000 -0.631000
C 6.242000 6.242000 0.892000
C 24.968000 -0.000000 24.968000
H 24.423000 -0.269000 25.873000
H 25.238000 -0.905000 24.423000
H 25.872000 0.545000 25.237000
C 23.184000 1.783000 24.968000
H 23.813000 2.412000 25.598000
H 22.555000 1.154000 25.596000
C -0.000000 24.968000 24.968000
H 0.481000 25.111000 25.935000
H -0.967000 24.486000 25.111000
H -0.145000 25.935000 24.486000
C 1.783000 23.184000 24.968000
H 2.412000 23.813000 25.598000
H 1.154000 22.555000 25.596000
C 3.567000 21.401000 24.968000
H 4.195000 22.029000 25.598000
H 2.937000 20.771000 25.596000
C 7.134000 17.834000 24.968000
H 7.762000 18.463000 25.598000
H 6.504000 17.204000 25.596000
C 5.350000 19.617000 24.968000
H 5.979000 20.246000 25.598000
H 4.721000 18.988000 25.596000
C 10.700000 14.267000 24.968000
H 11.329000 14.896000 25.598000
H 10.071000 13.638000 25.596000
C 8.917000 16.051000 24.968000
H 9.546000 16.679000 25.598000
H 8.287000 15.421000 25.596000
C 14.267000 10.700000 24.968000
H 14.896000 11.329000 25.598000
H 13.638000 10.071000 25.596000
C 12.484000 12.484000 24.968000
H 13.112000 13.112000 25.598000
H 11.854000 11.854000 25.596000
C 17.834000 7.134000 24.968000
H 18.463000 7.762000 25.598000
H 17.204000 6.504000 25.596000
C 16.051000 8.917000 24.968000
H 16.679000 9.546000 25.598000
H 15.421000 8.287000 25.596000
C 21.401000 3.567000 24.968000
H 20.772000 2.938000 25.598000
H 22.030000 4.196000 25.596000
C 19.617000 5.350000 24.968000
H 20.246000 5.979000 25.598000
H 18.988000 4.721000 25.596000
C 24.968000 1.783000 23.184000
H 25.598000 2.412000 23.813000
H 25.596000 1.154000 22.555000
C 21.401000 0.000000 21.401000
H 22.029000 -0.631000 20.772000
H 20.771000 -0.629000 22.030000
C 22.292000 0.892000 22.292000
C 21.401000 1.783000 23.184000
H 20.771000 1.154000 23.813000
C 22.292000 2.675000 24.076000
C 23.184000 0.000000 23.184000
H 23.814000 -0.629000 22.555000
H 22.555000 -0.631000 23.813000
C 24.076000 0.892000 24.076000
C 23.184000 1.783000 21.401000
H 23.813000 1.154000 20.771000
C 24.076000 2.675000 22.292000
C 19.617000 1.783000 21.401000
H 18.988000 1.154000 22.030000
C 20.509000 2.675000 22.292000
C 1.783000 24.968000 23.184000
H 2.413000 25.596000 23.814000
H 1.155000 25.598000 22.555000
C 3.567000 24.968000 21.401000
H 2.938000 25.598000 20.772000
H 4.196000 25.596000 22.030000
C -0.000000 21.401000 21.401000
H -0.631000 20.772000 22.029000
H -0.629000 22.030000 20.771000
C 0.892000 22.292000 22.292000
C -0.000000 23.184000 23.184000
H -0.631000 23.813000 22.555000
H -0.629000 22.555000 23.814000
C 0.892000 24.076000 24.076000
C 1.783000 21.401000 23.184000
H 1.154000 20.771000 23.813000
C 2.675000 22.292000 24.076000
C 1.783000 23.184000 21.401000
H 1.154000 23.813000 20.771000
C 2.675000 24.076000 22.292000
C 7.134000 21.401000 21.401000
H 7.763000 22.030000 22.030000
C 3.567000 21.401000 21.401000
C 4.458000 22.292000 22.292000
C 3.567000 23.184000 23.184000
H 4.196000 23.813000 23.813000
C 5.350000 21.401000 23.184000
H 5.979000 22.030000 23.813000
C 5.350000 23.184000 21.401000
H 5.979000 23.813000 22.030000
C 1.783000 19.617000 21.401000
H 1.154000 18.988000 22.030000
C 2.675000 20.509000 22.292000
C 10.700000 17.834000 21.401000
H 11.330000 18.463000 22.030000
C 7.134000 17.834000 21.401000
C 8.025000 18.726000 22.292000
C 7.134000 19.617000 23.184000
H 7.763000 20.247000 23.813000
C 8.917000 17.834000 23.184000
H 9.546000 18.463000 23.813000
C 8.917000 19.617000 21.401000
H 9.546000 20.247000 22.030000
C 3.567000 17.834000 21.401000
H 2.937000 17.205000 22.030000
C 4.458000 18.726000 22.292000
C 3.567000 19.617000 23.184000
H 2.937000 18.988000 23.813000
C 4.458000 20.509000 24.076000
C 5.350000 17.834000 23.184000
H 4.721000 17.205000 23.813000
C 6.242000 18.726000 24.076000
C 5.350000 19.617000 21.401000
C 6.242000 20.509000 22.292000
C 14.267000 14.267000 21.401000
H 14.896000 14.896000 22.030000
C 10.700000 14.267000 21.401000
C 11.592000 15.159000 22.292000
C 10.700000 16.051000 23.184000
H 11.330000 16.680000 23.813000
C 12.484000 14.267000 23.184000
H 13.113000 14.896000 23.813000
C 12.484000 16.051000 21.401000
H 13.113000 16.680000 22.030000
C 7.134000 14.267000 21.401000
H 6.504000 13.638000 22.030000
C 8.025000 15.159000 22.292000
C 7.134000 16.051000 23.184000
H 6.504000 15.421000 23.813000
C 8.025000 16.942000 24.076000
C 8.917000 14.267000 23.184000
H 8.288000 13.638000 23.813000
C 9.809000 15.159000 24.076000
C 8.917000 16.051000 21.401000
C 9.809000 16.942000 22.292000
C 5.350000 16.051000 21.401000
H 4.721000 15.421000 22.030000
C 6.242000 16.942000 22.292000
C 17.834000 10.700000 21.401000
H 18.463000 11.330000 22.030000
C 14.267000 10.700000 21.401000
C 15.159000 11.592000 22.292000
C 14.267000 12.484000 23.184000
H 14.896000 13.113000 23.813000
C 16.051000 10.700000 23.184000
H 16.680000 11.330000 23.813000
C 16.051000 12.484000 21.401000
H 16.680000 13.113000 22.030000
C 10.700000 10.700000 21.401000
H 10.071000 10.071000 22.030000
C 11.592000 11.592000 22.292000
C 10.700000 12.484000 23.184000
H 10.071000 11.854000 23.813000
C 11.592000 13.375000 24.076000
C 12.484000 10.700000 23.184000
H 11.854000 10.071000 23.813000
C 13.375000 11.592000 24.076000
C 12.484000 12.484000 21.401000
C 13.375000 13.375000 22.292000
C 8.917000 12.484000 21.401000
H 8.288000 11.854000 22.030000
C 9.809000 13.375000 22.292000
C 21.401000 7.134000 21.401000
H 22.030000 7.763000 22.030000
C 17.834000 7.134000 21.401000
C 18.726000 8.025000 22.292000
C 17.834000 8.917000 23.184000
H 18.463000 9.546000 23.813000
C 19.617000 7.134000 23.184000
H 20.247000 7.763000 23.813000
C 19.617000 8.917000 21.401000
H 20.247000 9.546000 22.030000
C 14.267000 7.134000 21.401000
H 13.638000 6.504000 22.030000
C 15.159000 8.025000 22.292000
C 14.267000 8.917000 23.184000
H 13.638000 8.288000 23.813000
C 15.159000 9.809000 24.076000
C 16.051000 7.134000 23.184000
H 15.421000 6.504000 23.813000
C 16.942000 8.025000 24.076000
C 16.051000 8.917000 21.401000
C 16.942000 9.809000 22.292000
C 12.484000 8.917000 21.401000
H 11.854000 8.288000 22.030000
C 13.375000 9.809000 22.292000
C 24.968000 3.567000 21.401000
H 25.596000 2.937000 20.771000
H 25.598000 4.195000 22.029000
C 21.401000 3.567000 21.401000
C 22.292000 4.458000 22.292000
C 21.401000 5.350000 23.184000
H 22.030000 5.979000 23.813000
C 23.184000 3.567000 23.184000
H 23.813000 4.196000 23.813000
C 23.184000 5.350000 21.401000
H 23.813000 5.979000 22.030000
C 17.834000 3.567000 21.401000
H 17.205000 2.937000 22.030000
C 18.726000 4.458000 22.292000
C 17.834000 5.350000 23.184000
H 17.205000 4.721000 23.813000
C 18.726000 6.242000 24.076000
C 19.617000 3.567000 23.184000
H 18.988000 2.937000 23.813000
C 20.509000 4.458000 24.076000
C 19.617000 5.350000 21.401000
C 20.509000 6.242000 22.292000
C 16.051000 5.350000 21.401000
H 15.421000 4.721000 22.030000
C 16.942000 6.242000 22.292000
C 21.401000 1.783000 19.617000
H 22.030000 1.154000 18.988000
C 22.292000 2.675000 20.509000
C 17.834000 -0.000000 17.834000
H 17.204000 -0.629000 18.463000
H 18.463000 -0.631000 17.205000
C 18.726000 0.892000 18.726000
C 17.834000 1.783000 19.617000
H 17.205000 1.154000 20.247000
C 18.726000 2.675000 20.509000
C 19.617000 -0.000000 19.617000
H 20.247000 -0.629000 18.988000
H 18.989000 -0.631000 20.246000
C 20.509000 0.892000 20.509000
C 19.617000 1.783000 17.834000
H 20.247000 1.154000 17.205000
C 20.509000 2.675000 18.726000
C 16.051000 1.783000 17.834000
H 15.421000 1.154000 18.463000
C 16.942000 2.675000 18.726000
C 7.134000 24.968000 17.834000
H 7.763000 25.596000 18.463000
H 6.505000 25.598000 17.205000
C 5.350000 24.968000 19.617000
H 4.721000 25.598000 18.989000
H 5.980000 25.596000 20.247000
C 1.783000 21.401000 19.617000
H 1.154000 22.030000 18.988000
C 2.675000 22.292000 20.509000
C 10.700000 21.401000 17.834000
H 11.330000 22.030000 18.463000
C 7.134000 21.401000 17.834000
C 8.025000 22.292000 18.726000
C 7.134000 23.184000 19.617000
H 7.763000 23.813000 20.247000
C 8.917000 21.401000 19.617000
H 9.546000 22.030000 20.247000
C 8.917000 23.184000 17.834000
H 9.546000 23.813000 18.463000
C 3.567000 21.401000 17.834000
H 2.937000 22.030000 17.205000
C 4.458000 22.292000 18.726000
C 3.567000 23.184000 19.617000
H 2.937000 23.813000 18.988000
C 4.458000 24.076000 20.509000
C 5.350000 21.401000 19.617000
C 6.242000 22.292000 20.509000
C 5.350000 23.184000 17.834000
H 4.721000 23.813000 17.205000
C 6.242000 24.076000 18.726000
C -0.000000 17.834000 17.834000
H -0.629000 18.463000 17.204000
H -0.631000 17.205000 18.463000
C 0.892000 18.726000 18.726000
C -0.000000 19.617000 19.617000
H -0.631000 20.246000 18.989000
H -0.629000 18.988000 20.247000
C 0.892000 20.509000 20.509000
C 1.783000 17.834000 19.617000
H 1.154000 17.205000 20.247000
C 2.675000 18.726000 20.509000
C 1.783000 19.617000 17.834000
H 1.154000 20.247000 17.205000
C 2.675000 20.509000 18.726000
C 14.267000 17.834000 17.834000
H 14.896000 18.463000 18.463000
C 10.700000 17.834000 17.834000
C 11.592000 18.726000 18.726000
C 10.700000 19.617000 19.617000
H 11.330000 20.247000 20.247000
C 12.484000 17.834000 19.617000
H 13.113000 18.463000 20.247000
C 12.484000 19.617000 17.834000
H 13.113000 20.247000 18.463000
C 7.134000 17.834000 17.834000
C 8.025000 18.726000 18.726000
C 7.134000 19.617000 19.617000
C 8.025000 20.509000 20.509000
C 8.917000 17.834000 19.617000
C 9.809000 18.726000 20.509000
C 8.917000 19.617000 17.834000
C 9.809000 20.509000 18.726000
C 3.567000 17.834000 17.834000
C 4.458000 18.726000 18.726000
C 3.567000 19.617000 19.617000
C 4.458000 20.509000 20.509000
C 5.350000 17.834000 19.617000
C 6.242000 18.726000 20.509000
C 5.350000 19.617000 17.834000
C 6.242000 20.509000 18.726000
C 1.783000 16.051000 17.834000
H 1.154000 15.421000 18.463000
C 2.675000 16.942000 18.726000
C 17.834000 14.267000 17.834000
H 18.463000 14.896000 18.463000
C 14.267000 14.267000 17.834000
C 15.159000 15.159000 18.726000
C 14.267000 16.051000 19.617000
H 14.896000 16.680000 20.247000
C 16.051000 14.267000 19.617000
H 16.680000 14.896000 20.247000
C 16.051000 16.051000 17.834000
H 16.680000 16.680000 18.463000
C 10.700000 14.267000 17.834000
C 11.592000 15.159000 18.726000
C 10.700000 16.051000 19.617000
C 11.592000 16.942000 20.509000
C 12.484000 14.267000 19.617000
C 13.375000 15.159000 20.509000
C 12.484000 16.051000 17.834000
C 13.375000 16.942000 18.726000
C 7.134000 14.267000 17.834000
C 8.025000 15.159000 18.726000
C 7.134000 16.051000 19.617000
C 8.025000 16.942000 20.509000
C 8.917000 14.267000 19.617000
C 9.809000 15.159000 20.509000
C 8.917000 16.051000 17.834000
C 9.809000 16.942000 18.726000
C 3.567000 14.267000 17.834000
H 2.937000 13.638000 18.463000
C 4.458000 15.159000 18.726000
C 3.567000 16.051000 19.617000
H 2.937000 15.421000 20.247000
C 4.458000 16.942000 20.509000
C 5.350000 14.267000 19.617000
H 4.721000 13.638000 20.247000
C 6.242000 15.159000 20.509000
C 5.350000 16.051000 17.834000
C 6.242000 16.942000 18.726000
C 21.401000 10.700000 17.834000
H 22.030000 11.330000 18.463000
C 17.834000 10.700000 17.834000
C 18.726000 11.592000 18.726000
C 17.834000 12.484000 19.617000
H 18.463000 13.113000 20.247000
C 19.617000 10.700000 19.617000
H 20.247000 11.330000 20.247000
C 19.617000 12.484000 17.834000
H 20.247000 13.113000 18.463000
C 14.267000 10.700000 17.834000
C 15.159000 11.592000 18.726000
C 14.267000 12.484000 19.617000
C 15.159000 13.375000 20.509000
C 16.051000 10.700000 19.617000
C 16.942000 11.592000 20.509000
C 16.051000 12.484000 17.834000
C 16.942000 13.375000 18.726000
C 10.700000 10.700000 17.834000
C 11.592000 11.592000 18.726000
C 10.700000 12.484000 19.617000
C 11.592000 13.375000 20.509000
C 12.484000 10.700000 19.617000
C 13.375000 11.592000 20.509000
C 12.484000 12.484000 17.834000
C 13.375000 13.375000 18.726000
C 7.134000 10.700000 17.834000
H 6.504000 10.071000 18.463000
C 8.025000 11.592000 18.726000
C 7.134000 12.484000 19.617000
H 6.504000 11.854000 20.247000
C 8.025000 13.375000 20.509000
C 8.917000 10.700000 19.617000
H 8.288000 10.071000 20.247000
C 9.809000 11.592000 20.509000
C 8.917000 12.484000 17.834000
C 9.809000 13.375000 18.726000
C 5.350000 12.484000 17.834000
H 4.721000 11.854000 18.463000
C 6.242000 13.375000 18.726000
C 24.968000 7.134000 17.834000
H 25.596000 6.504000 17.204000
H 25.598000 7.762000 18.463000
C 21.401000 7.134000 17.834000
C 22.292000 8.025000 18.726000
C 21.401000 8.917000 19.617000
H 22.030000 9.546000 20.247000
C 23.184000 7.134000 19.617000
H 23.813000 7.763000 20.247000
C 23.184000 8.917000 17.834000
H 23.813000 9.546000 18.463000
C 17.834000 7.134000 17.834000
C 18.726000 8.025000 18.726000
C 17.834000 8.917000 19.617000
C 18.726000 9.809000 20.509000
C 19.617000 7.134000 19.617000
C 20.509000 8.025000 20.509000
C 19.617000 8.917000 17.834000
C 20.509000 9.809000 18.726000
C 14.267000 7.134000 17.834000
C 15.159000 8.025000 18.726000
C 14.267000 8.917000 19.617000
C 15.159000 9.809000 20.509000
C 16.051000 7.134000 19.617000
C 16.942000 8.025000 20.509000
C 16.051000 8.917000 17.834000
C 16.942000 9.809000 18.726000
C 10.700000 7.134000 17.834000
H 10.071000 6.504000 18.463000
C 11.592000 8.025000 18.726000
C 10.700000 8.917000 19.617000
H 10.071000 8.288000 20.247000
C 11.592000 9.809000 20.509000
C 12.484000 7.134000 19.617000
H 11.854000 6.504000 20.247000
C 13.375000 8.025000 20.509000
C 12.484000 8.917000 17.834000
C 13.375000 9.809000 18.726000
C 8.917000 8.917000 17.834000
H 8.288000 8.288000 18.463000
C 9.809000 9.809000 18.726000
C 24.968000 5.350000 19.617000
H 25.596000 4.721000 18.988000
H 25.598000 5.979000 20.246000
C 21.401000 3.567000 17.834000
H 22.030000 2.937000 17.205000
C 22.292000 4.458000 18.726000
C 21.401000 5.350000 19.617000
C 22.292000 6.242000 20.509000
C 23.184000 3.567000 19.617000
H 23.813000 2.937000 18.988000
C 24.076000 4.458000 20.509000
C 23.184000 5.350000 17.834000
H 23.813000 4.721000 17.205000
C 24.076000 6.242000 18.726000
C 17.834000 3.567000 17.834000
C 18.726000 4.458000 18.726000
C 17.834000 5.350000 19.617000
C 18.726000 6.242000 20.509000
C 19.617000 3.567000 19.617000
C 20.509000 4.458000 20.509000
C 19.617000 5.350000 17.834000
C 20.509000 6.242000 18.726000
C 14.267000 3.567000 17.834000
H 13.638000 2.937000 18.463000
C 15.159000 4.458000 18.726000
C 14.267000 5.350000 19.617000
H 13.638000 4.721000 20.247000
C 15.159000 6.242000 20.509000
C 16.051000 3.567000 19.617000
H 15.421000 2.937000 20.247000
C 16.942000 4.458000 20.509000
C 16.051000 5.350000 17.834000
C 16.942000 6.242000 18.726000
C 12.484000 5.350000 17.834000
H 11.854000 4.721000 18.463000
C 13.375000 6.242000 18.726000
C 17.834000 1.783000 16.051000
H 18.463000 1.154000 15.421000
C 18.726000 2.675000 16.942000
C 14.267000 0.000000 14.267000
H 13.638000 -0.629000 14.897000
H 14.896000 -0.631000 13.638000
C 15.159000 0.892000 15.159000
C 14.267000 1.783000 16.051000
H 13.638000 1.154000 16.680000
C 15.159000 2.675000 16.942000
C 16.051000 0.000000 16.051000
H 16.680000 -0.629000 15.421000
H 15.422000 -0.631000 16.679000
C 16.942000 0.892000 16.942000
C 16.051000 1.783000 14.267000
H 16.680000 1.154000 13.638000
C 16.942000 2.675000 15.159000
C 12.484000 1.783000 14.267000
H 11.854000 1.154000 14.896000
C 13.375000 2.675000 15.159000
C 10.700000 24.968000 14.267000
H 11.330000 25.596000 14.897000
H 10.072000 25.598000 13.638000
C 8.917000 24.968000 16.051000
H 8.288000 25.598000 15.422000
H 9.546000 25.596000 16.680000
C 14.267000 21.401000 14.267000
H 14.896000 22.030000 14.896000
C 10.700000 21.401000 14.267000
C 11.592000 22.292000 15.159000
C 10.700000 23.184000 16.051000
H 11.330000 23.813000 16.680000
C 12.484000 21.401000 16.051000
H 13.113000 22.030000 16.680000
C 12.484000 23.184000 14.267000
H 13.113000 23.813000 14.896000
C 7.134000 21.401000 14.267000
H 6.504000 22.030000 13.638000
C 8.025000 22.292000 15.159000
C 7.134000 23.184000 16.051000
H 6.504000 23.813000 15.421000
C 8.025000 24.076000 16.942000
C 8.917000 21.401000 16.051000
C 9.809000 22.292000 16.942000
C 8.917000 23.184000 14.267000
H 8.288000 23.813000 13.638000
C 9.809000 24.076000 15.159000
C 5.350000 21.401000 16.051000
H 4.721000 22.030000 15.421000
C 6.242000 22.292000 16.942000
C 1.783000 17.834000 16.051000
H 1.154000 18.463000 15.421000
C 2.675000 18.726000 16.942000
C 17.834000 17.834000 14.267000
H 18.463000 18.463000 14.896000
C 14.267000 17.834000 14.267000
C 15.159000 18.726000 15.159000
C 14.267000 19.617000 16.051000
H 14.896000 20.247000 16.680000
C 16.051000 17.834000 16.051000
H 16.680000 18.463000 16.680000
C 16.051000 19.617000 14.267000
H 16.680000 20.247000 14.896000
C 10.700000 17.834000 14.267000
C 11.592000 18.726000 15.159000
C 10.700000 19.617000 16.051000
C 11.592000 20.509000 16.942000
C 12.484000 17.834000 16.051000
C 13.375000 18.726000 16.942000
C 12.484000 19.617000 14.267000
C 13.375000 20.509000 15.159000
C 7.134000 17.834000 14.267000
C 8.025000 18.726000 15.159000
C 7.134000 19.617000 16.051000
C 8.025000 20.509000 16.942000
C 8.917000 17.834000 16.051000
C 9.809000 18.726000 16.942000
C 8.917000 19.617000 14.267000
C 9.809000 20.509000 15.159000
C 3.567000 17.834000 14.267000
H 2.937000 18.463000 13.638000
C 4.458000 18.726000 15.159000
C 3.567000 19.617000 16.051000
H 2.937000 20.247000 15.421000
C 4.458000 20.509000 16.942000
C 5.350000 17.834000 16.051000
C 6.242000 18.726000 16.942000
C 5.350000 19.617000 14.267000
H 4.721000 20.247000 13.638000
C 6.242000 20.509000 15.159000
C -0.000000 14.267000 14.267000
H -0.629000 14.897000 13.638000
H -0.631000 13.638000 14.896000
C 0.892000 15.159000 15.159000
C -0.000000 16.051000 16.051000
H -0.631000 16.679000 15.422000
H -0.629000 15.421000 16.680000
C 0.892000 16.942000 16.942000
C 1.783000 14.267000 16.051000
H 1.154000 13.638000 16.680000
C 2.675000 15.159000 16.942000
C 1.783000 16.051000 14.267000
H 1.154000 16.680000 13.638000
C 2.675000 16.942000 15.159000
C 21.401000 14.267000 14.267000
H 22.030000 14.896000 14.896000
C 17.834000 14.267000 14.267000
C 18.726000 15.159000 15.159000
C 17.834000 16.051000 16.051000
H 18.463000 16.680000 16.680000
C 19.617000 14.267000 16.051000
H 20.247000 14.896000 16.680000
C 19.617000 16.051000 14.267000
H 20.247000 16.680000 14.896000
C 14.267000 14.267000 14.267000
C 15.159000 15.159000 15.159000
C 14.267000 16.051000 16.051000
C 15.159000 16.942000 16.942000
C 16.051000 14.267000 16.051000
C 16.942000 15.159000 16.942000
C 16.051000 16.051000 14.267000
C 16.942000 16.942000 15.159000
C 10.700000 14.267000 14.267000
C 11.592000 15.159000 15.159000
C 10.700000 16.051000 16.051000
C 11.592000 16.942000 16.942000
C 12.484000 14.267000 16.051000
C 13.375000 15.159000 16.942000
C 12.484000 16.051000 14.267000
C 13.375000 16.942000 15.159000
C 7.134000 14.267000 14.267000
C 8.025000 15.159000 15.159000
C 7.134000 16.051000 16.051000
C 8.025000 16.942000 16.942000
C 8.917000 14.267000 16.051000
C 9.809000 15.159000 16.942000
C 8.917000 16.051000 14.267000
C 9.809000 16.942000 15.159000
C 3.567000 14.267000 14.267000
C 4.458000 15.159000 15.159000
C 3.567000 16.051000 16.051000
C 4.458000 16.942000 16.942000
C 5.350000 14.267000 16.051000
C 6.242000 15.159000 16.942000
C 5.350000 16.051000 14.267000
C 6.242000 16.942000 15.159000
C 1.783000 12.484000 14.267000
H 1.154000 11.854000 14.896000
C 2.675000 13.375000 15.159000
C 24.968000 10.700000 14.267000
H 25.596000 10.071000 13.638000
H 25.598000 11.329000 14.896000
C 21.401000 10.700000 14.267000
C 22.292000 11.592000 15.159000
C 21.401000 12.484000 16.051000
H 22.030000 13.113000 16.680000
C 23.184000 10.700000 16.051000
H 23.813000 11.330000 16.680000
C 23.184000 12.484000 14.267000
H 23.813000 13.113000 14.896000
C 17.834000 10.700000 14.267000
C 18.726000 11.592000 15.159000
C 17.834000 12.484000 16.051000
C 18.726000 13.375000 16.942000
C 19.617000 10.700000 16.051000
C 20.509000 11.592000 16.942000
C 19.617000 12.484000 14.267000
C 20.509000 13.375000 15.159000
C 14.267000 10.700000 14.267000
C 15.159000 11.592000 15.159000
C 14.267000 12.484000 16.051000
C 15.159000 13.375000 16.942000
C 16.051000 10.700000 16.051000
C 16.942000 11.592000 16.942000
C 16.051000 12.484000 14.267000
C 16.942000 13.375000 15.159000
C 10.700000 10.700000 14.267000
C 11.592000 11.592000 15.159000
C 10.700000 12.484000 16.051000
C 11.592000 13.375000 16.942000
C 12.484000 10.700000 16.051000
C 13.375000 11.592000 16.942000
C 12.484000 12.484000 14.267000
C 13.375000 13.375000 15.159000
C 7.134000 10.700000 14.267000
C 8.025000 11.592000 15.159000
C 7.134000 12.484000 16.051000
C 8.025000 13.375000 16.942000
C 8.917000 10.700000 16.051000
C 9.809000 11.592000 16.942000
C 8.917000 12.484000 14.267000
C 9.809000 13.375000 15.159000
C 3.567000 10.700000 14.267000
H 2.937000 10.071000 14.896000
C 4.458000 11.592000 15.159000
C 3.567000 12.484000 16.051000
H 2.937000 11.854000 16.680000
C 4.458000 13.375000 16.942000
C 5.350000 10.700000 16.051000
H 4.721000 10.071000 16.680000
C 6.242000 11.592000 16.942000
C 5.350000 12.484000 14.267000
C 6.242000 13.375000 15.159000
C 24.968000 8.917000 16.051000
H 25.596000 8.287000 15.421000
H 25.598000 9.546000 16.679000
C 21.401000 7.134000 14.267000
H 22.030000 6.504000 13.638000
C 22.292000 8.025000 15.159000
C 21.401000 8.917000 16.051000
C 22.292000 9.809000 16.942000
C 23.184000 7.134000 16.051000
H 23.813000 6.504000 15.421000
C 24.076000 8.025000 16.942000
C 23.184000 8.917000 14.267000
H 23.813000 8.288000 13.638000
C 24.076000 9.809000 15.159000
C 17.834000 7.134000 14.267000
C 18.726000 8.025000 15.159000
C 17.834000 8.917000 16.051000
C 18.726000 9.809000 16.942000
C 19.617000 7.134000 16.051000
C 20.509000 8.025000 16.942000
C 19.617000 8.917000 14.267000
C 20.509000 9.809000 15.159000
C 14.267000 7.134000 14.267000
C 15.159000 8.025000 15.159000
C 14.267000 8.917000 16.051000
C 15.159000 9.809000 16.942000
C 16.051000 7.134000 16.051000
C 16.942000 8.025000 16.942000
C 16.051000 8.917000 14.267000
C 16.942000 9.809000 15.159000
C 10.700000 7.134000 14.267000
C 11.592000 8.025000 15.159000
C 10.700000 8.917000 16.051000
C 11.592000 9.809000 16.942000
C 12.484000 7.134000 16.051000
C 13.375000 8.025000 16.942000
C 12.484000 8.917000 14.267000
C 13.375000 9.809000 15.159000
C 7.134000 7.134000 14.267000
H 6.504000 6.504000 14.896000
C 8.025000 8.025000 15.159000
C 7.134000 8.917000 16.051000
H 6.504000 8.288000 16.680000
C 8.025000 9.809000 16.942000
C 8.917000 7.134000 16.051000
H 8.288000 6.504000 16.680000
C 9.809000 8.025000 16.942000
C 8.917000 8.917000 14.267000
C 9.809000 9.809000 15.159000
C 5.350000 8.917000 14.267000
H 4.721000 8.288000 14.896000
C 6.242000 9.809000 15.159000
C 21.401000 5.350000 16.051000
H 22.030000 4.721000 15.421000
C 22.292000 6.242000 16.942000
C 17.834000 3.567000 14.267000
H 18.463000 2.937000 13.638000
C 18.726000 4.458000 15.159000
C 17.834000 5.350000 16.051000
C 18.726000 6.242000 16.942000
C 19.617000 3.567000 16.051000
H 20.247000 2.937000 15.421000
C 20.509000 4.458000 16.942000
C 19.617000 5.350000 14.267000
H 20.247000 4.721000 13.638000
C 20.509000 6.242000 15.159000
C 14.267000 3.567000 14.267000
C 15.159000 4.458000 15.159000
C 14.267000 5.350000 16.051000
C 15.159000 6.242000 16.942000
C 16.051000 3.567000 16.051000
C 16.942000 4.458000 16.942000
C 16.051000 5.350000 14.267000
C 16.942000 6.242000 15.159000
C 10.700000 3.567000 14.267000
H 10.071000 2.937000 14.896000
C 11.592000 4.458000 15.159000
C 10.700000 5.350000 16.051000
H 10.071000 4.721000 16.680000
C 11.592000 6.242000 16.942000
C 12.484000 3.567000 16.051000
H 11.854000 2.937000 16.680000
C 13.375000 4.458000 16.942000
C 12.484000 5.350000 14.267000
C 13.375000 6.242000 15.159000
C 8.917000 5.350000 14.267000
H 8.288000 4.721000 14.896000
C 9.809000 6.242000 15.159000
C 14.267000 1.783000 12.484000
H 14.896000 1.154000 11.854000
C 15.159000 2.675000 13.375000
C 10.700000 -0.000000 10.700000
H 10.071000 -0.629000 11.330000
H 11.329000 -0.631000 10.072000
C 11.592000 0.892000 11.592000
C 10.700000 1.783000 12.484000
H 10.071000 1.154000 13.113000
C 11.592000 2.675000 13.375000
C 12.484000 0.000000 12.484000
H 13.113000 -0.629000 11.854000
H 11.855000 -0.631000 13.112000
C 13.375000 0.892000 13.375000
C 12.484000 1.783000 10.700000
H 13.113000 1.154000 10.071000
C 13.375000 2.675000 11.592000
C 8.917000 1.783000 10.700000
H 8.288000 1.154000 11.330000
C 9.809000 2.675000 11.592000
C 14.267000 24.968000 10.700000
H 14.897000 25.596000 11.330000
H 13.638000 25.598000 10.072000
C 12.484000 24.968000 12.484000
H 11.855000 25.598000 11.855000
H 13.113000 25.596000 13.113000
C 17.834000 21.401000 10.700000
H 18.463000 22.030000 11.330000
C 14.267000 21.401000 10.700000
C 15.159000 22.292000 11.592000
C 14.267000 23.184000 12.484000
H 14.896000 23.813000 13.113000
C 16.051000 21.401000 12.484000
H 16.680000 22.030000 13.113000
C 16.051000 23.184000 10.700000
H 16.680000 23.813000 11.330000
C 10.700000 21.401000 10.700000
H 10.071000 22.030000 10.071000
C 11.592000 22.292000 11.592000
C 10.700000 23.184000 12.484000
H 10.071000 23.813000 11.854000
C 11.592000 24.076000 13.375000