# PYTHONPATH must include directory above plugin directory.
#     Define either externally or here, then import plugin.
sys.path.insert(0, '.')

import os

#Set this up like a dictionary
SI = {
'name': 'nvdiamond+',
'basis': 'sto-3g/sto-3g',
'frags': '-1/1',
'methods': 'scf/scf',
'scratch': 'scr',
'envir': 'local'
}

sifile = open('SI.txt', 'w')
sifile.write(SI['name']+'\n')
sifile.write(SI['frags']+'\n')
sifile.write(SI['methods']+'\n')
sifile.write(SI['basis']+'\n')
sifile.write(SI['scratch']+'\n')
sifile.write(SI['envir']+'\n')
sifile.close()
import scf_template

molecule {
1 1
  C       -2.97755       -3.60750       -3.08602
   C       -3.14199       -1.90543       -1.24857
   C       -1.33867       -1.74059       -3.04234
   C       -1.48012        0.06853       -1.17198
   N       -0.12495       -2.71272       -0.68467
   C       -2.15011       -2.67667       -2.17172
   C       -2.52849       -1.01833       -0.10351
   C       -0.45448       -0.84676       -2.17196
   C       -1.11965       -3.51499       -1.40880
   C       -4.10512       -2.87143        1.25743
   C       -3.15537       -1.30003        2.82638
   C       -1.34690        0.37910        2.35596
   C       -0.56458       -2.74477        2.80231
   C       -2.75614       -2.01862        1.44535
   C       -2.18905       -0.31235        3.41229
   C       -0.32660       -0.55313        1.52322
   C       -1.78992       -3.11799        1.95293
   C       -3.67062        0.68873       -3.07060
   C       -3.25755        2.35316       -1.35366
   C       -1.67959        2.17270       -3.08724
   C       -1.38532        3.88866       -1.36474
   C       -0.51679        1.09868       -0.39333
   C       -2.52130        1.22305       -2.17466
   C       -2.28271        3.05916       -0.44991
   C       -0.62374        2.92319       -2.27434
   C       -3.32344        0.13642        0.48986
   C       -3.45876        2.05062        2.08037
   C       -1.47201        2.07286        0.46749
   C       -1.67773        3.87347        2.34746
   C       -0.46103        1.38197        3.18293
   C       -2.40072        1.15494        1.34260
   C       -2.94318        3.22354        2.88844
   C       -0.69649        2.99377        1.47590
   C        1.55576       -3.58002       -3.37148
   C        0.68775       -1.73486       -1.43766
   C        2.88384       -1.52846       -3.18187
   C        2.29577        0.29526       -1.45182
   C        3.50897       -2.43662       -0.22617
   C        1.98009       -2.49370       -2.35606
   C        1.48012       -0.72105       -0.46199
   C        3.35184       -0.33895       -2.39170
   C        3.07025       -3.20199       -1.45803
   C        0.64620       -3.51860        0.20810
   C        0.42680       -1.77087        2.15273
   C        2.40370       -1.64930        0.50629
   C        2.21891        0.07941        2.41206
   C        3.04455       -3.83125        3.26092
   C        1.43476       -2.67499        1.24779
   C        1.32543       -1.02754        3.14154
   C        3.14522       -0.82042        1.58301
   C        2.17432       -3.91203        2.01657
   C        0.32628        0.04597       -3.10320
   C        0.34242        1.99266       -1.44153
   C        1.84118        1.93592       -3.51755
   C        2.21434        3.77602       -1.77624
   C        3.13190        1.26673       -0.58359
   C        1.20962        1.07013       -2.37330
   C        1.41445        2.90605       -0.73235
   C        2.68745        3.11090       -3.06503
   C        0.47842        0.22973        0.48023
   C        0.41273        2.19861        2.24911
   C        2.25728        2.09600        0.34248
   C        2.33056        3.94998        2.13250
   C        3.07409        0.65932        3.56154
   C        1.36417        1.18062        1.37409
   C        1.31659        3.21080        3.00868
   C        3.12564        3.07274        1.16543
   H       -3.70502       -3.03703       -3.67454
   H       -3.52834       -4.35083       -2.49869
   H       -2.33737       -4.15199       -3.78960
   H       -3.86331       -2.63497       -0.91057
   H       -3.78303       -1.30133       -1.87299
   H       -1.96199       -1.16631       -3.71401
   H       -0.73960       -2.32013       -3.74242
   H       -1.67957       -4.17054       -0.73565
   H       -0.63660       -4.21414       -2.09069
   H       -4.92109       -2.26554        0.84934
   H       -4.48148       -3.26696        2.21102
   H       -3.94283       -3.76230        0.63979
   H       -3.30615       -2.06293        3.60774
   H       -4.15745       -0.85617        2.79300
   H       -0.08086       -3.68242        3.08319
   H       -0.87045       -2.41403        3.79332
   H       -2.76751        0.41399        3.99737
   H       -2.35193       -3.76173        2.65322
   H       -1.62395       -3.83909        1.17424
   H       -4.08094        1.50217       -3.68717
   H       -4.53188        0.34791       -2.48950
   H       -3.39544       -0.06625       -3.79619
   H       -4.18804        2.10366       -0.84606
   H       -3.68424        3.10005       -2.04604
   H       -2.33567        2.94255       -3.53026
   H       -1.34339        1.74818       -4.02442
   H       -0.73648        4.57644       -0.82259
   H       -2.00079        4.56345       -1.97758
   H       -2.87411        3.77334        0.12752
   H       -0.08137        3.55856       -2.97785
   H       -4.18570       -0.17519        1.07542
   H       -3.91779        0.53308       -0.30130
   H       -4.10763        1.44999        2.72704
   H       -4.16395        2.45454        1.34399
   H       -1.16275        4.35800        3.18067
   H       -1.99086        4.72863        1.73190
   H        0.13908        0.93821        3.96491
   H       -2.80374        2.91748        3.93080
   H       -3.73156        3.98573        2.95112
   H       -0.20411        3.80752        0.97998
   H        0.91027       -3.19989       -4.16075
   H        1.10463       -4.44995       -2.89607
   H        2.43666       -3.97799       -3.89498
   H        2.46416       -1.24367       -4.14857
   H        3.78819       -2.05056       -3.53207
   H        4.34598       -1.78128       -0.46583
   H        4.01605       -3.13558        0.44763
   H        3.76440        0.39349       -3.09188
   H        2.80502       -4.23120       -1.20869
   H        3.98274       -3.39448       -2.04338
   H        1.25250       -4.22084       -0.34686
   H        0.04488       -4.25896        0.73239
   H        3.42843       -4.83652        3.47878
   H        2.47996       -3.54389        4.15006
   H        3.92850       -3.20705        3.14367
   H        0.77002       -0.68222        4.00854
   H        4.02543       -0.28842        1.24364
   H        1.41446       -4.66102        2.27646
   H        2.77200       -4.46134        1.27817
   H       -0.30057        0.46031       -3.86828
   H        0.88959       -0.56612       -3.78564
   H        1.04889        2.32817       -4.16709
   H        2.41615        1.32477       -4.22200
   H        1.56233        4.61044       -2.07153
   H        3.06465        4.28238       -1.31131
   H        3.95140        0.78053       -0.08045
   H        0.96213        3.71564       -0.20241
   H        2.71024        3.86330       -3.86446
   H        3.73311        2.79945       -2.97393
   H        3.03554        4.48185        2.78378
   H        1.81385        4.73548        1.56918
   H        3.72957        1.47335        3.27348
   H        1.84815        2.73340        3.82575
   H        0.72721        3.96563        3.53482
   H        3.71070        3.73380        0.51890
   H        3.89884        2.52212        1.69985
   H       -1.57241       -0.75016        4.19873
   H       -1.07120        2.01686        3.82063
   H        4.26383       -0.59374       -1.85324
   H        1.99562       -1.71451        3.64960
   H        3.64689       -1.51807        2.25366
   H        3.73592        1.92226       -1.21001
   H        2.45951        0.97067        4.41009
   H        3.73958       -0.10939        3.97811
}

optimize('scf_template')
