# PYTHONPATH must include directory above plugin directory.
#     Define either externally or here, then import plugin.
sys.path.insert(0, '.')

import os

#Set this up like a dictionary
SI = {
'name': 'nv_diamond',
'basis': 'cc-pvtz/cc-pvtz',
'frags': '1/1',
'methods': 'scf/scf',
'scratch': 'scr',
'envir': 'local'
}

sifile = open('SI.txt', 'w')
sifile.write(SI['name']+'\n')
sifile.write(SI['frags']+'\n')
sifile.write(SI['methods']+'\n')
sifile.write(SI['basis']+'\n')
sifile.write(SI['scratch']+'\n')
sifile.write(SI['envir']+'\n')
sifile.close()
import scf_template

molecule {
1 3
C        0.00000        0.00000        0.00000
 C        0.00000        1.78340        1.78340
 C        1.78340        1.78340        0.00000
 C        1.78340        3.56679        1.78340
 N        2.67509        0.89170        2.67509
 C        0.89170        0.89170        0.89170
 C        0.89170        2.67509        2.67509
 C        2.67509        2.67509        0.89170
 C        1.78340        0.00000        1.78340
 C        0.00000        0.00000        3.56679
 C        0.00000        1.78340        5.35018
 C        1.78340        3.56679        5.35018
 C        2.67509        0.89170        6.24188
 C        0.89170        0.89170        4.45849
 C        0.89170        2.67509        6.24188
 C        2.67509        2.67509        4.45849
 C        1.78340        0.00000        5.35018
 C        0.00000        3.56679        0.00000
 C        0.00000        5.35018        1.78340
 C        1.78340        5.35018        0.00000
 C        1.78340        7.13358        1.78340
 C        2.67509        4.45849        2.67509
 C        0.89170        4.45849        0.89170
 C        0.89170        6.24188        2.67509
 C        2.67509        6.24188        0.89170
 C        0.00000        3.56679        3.56679
 C        0.00000        5.35018        5.35018
 C        1.78340        5.35018        3.56679
 C        1.78339        7.13358        5.35018
 C        2.67509        4.45849        6.24188
 C        0.89170        4.45849        4.45849
 C        0.89170        6.24188        6.24188
 C        2.67509        6.24188        4.45849
 C        3.56679        0.00000        0.00000
 C        3.56679        1.78340        1.78340
 C        5.35018        1.78340        0.00000
 C        5.35018        3.56679        1.78340
 C        6.24188        0.89170        2.67509
 C        4.45849        0.89170        0.89170
 C        4.45849        2.67509        2.67509
 C        6.24188        2.67509        0.89170
 C        5.35018        0.00000        1.78340
 C        3.56679        0.00000        3.56679
 C        3.56679        1.78340        5.35018
 C        5.35018        1.78340        3.56679
 C        5.35018        3.56679        5.35018
 C        6.24188        0.89170        6.24188
 C        4.45849        0.89170        4.45849
 C        4.45849        2.67509        6.24188
 C        6.24188        2.67509        4.45849
 C        5.35018        0.00000        5.35018
 C        3.56679        3.56679        0.00000
 C        3.56679        5.35018        1.78340
 C        5.35018        5.35018        0.00000
 C        5.35018        7.13358        1.78340
 C        6.24188        4.45849        2.67509
 C        4.45849        4.45849        0.89170
 C        4.45849        6.24188        2.67509
 C        6.24188        6.24188        0.89170
 C        3.56679        3.56679        3.56679
 C        3.56679        5.35018        5.35018
 C        5.35018        5.35018        3.56679
 C        5.35018        7.13358        5.35018
 C        6.24188        4.45849        6.24188
 C        4.45849        4.45849        4.45849
 C        4.45849        6.24188        6.24188
 C        6.24188        6.24188        4.45849
 H       -0.61776        0.61777       -0.61776
 H       -0.61777       -0.61777        0.61776
 H        0.61776       -0.61777       -0.61777
 H       -0.61777        1.16563        2.40116
 H       -0.61776        2.40116        1.16563
 H        1.16563        2.40116       -0.61777
 H        2.40116        1.16563       -0.61776
 H        1.16563       -0.61777        2.40116
 H        2.40116       -0.61776        1.16563
 H       -0.61776        0.61777        2.94903
 H       -0.61777       -0.61777        4.18455
 H        0.61776       -0.61777        2.94902
 H       -0.61777        1.16563        5.96795
 H       -0.61776        2.40116        4.73242
 H        3.29286        0.27393        6.85965
 H        2.05733        1.50946        6.85965
 H        0.56908        2.35248        7.20973
 H        1.16563       -0.61777        5.96795
 H        2.40116       -0.61776        4.73242
 H       -0.61776        4.18456       -0.61776
 H       -0.61777        2.94902        0.61776
 H        0.61776        2.94902       -0.61777
 H       -0.61777        4.73242        2.40116
 H       -0.61776        5.96795        1.16563
 H        1.16563        5.96795       -0.61777
 H        2.40116        4.73242       -0.61776
 H        2.40116        7.75134        2.40116
 H        1.16563        7.75135        1.16563
 H        0.27393        6.85965        3.29286
 H        3.29286        6.85965        0.27393
 H       -0.61777        2.94902        4.18455
 H       -0.61776        4.18455        2.94902
 H       -0.61777        4.73242        5.96795
 H       -0.61777        5.96795        4.73242
 H        2.40116        7.75134        5.96795
 H        1.16563        7.75134        4.73242
 H        2.99771        4.78110        7.20973
 H        1.50946        5.62412        6.85965
 H        0.27393        6.85965        6.85965
 H        3.29286        6.85965        3.84072
 H        2.94903        0.61777       -0.61776
 H        2.94902       -0.61777        0.61776
 H        4.18455       -0.61777       -0.61777
 H        4.73242        2.40116       -0.61777
 H        5.96795        1.16563       -0.61776
 H        6.85965        1.50946        2.05733
 H        6.85965        0.27393        3.29286
 H        7.20973        2.35248        0.56908
 H        4.73242       -0.61777        2.40116
 H        5.96795       -0.61776        1.16563
 H        4.18455       -0.61777        2.94902
 H        2.94902       -0.61776        4.18455
 H        6.85965        0.27393        6.85965
 H        5.62412        1.50946        6.85965
 H        6.85965        1.50946        5.62412
 H        4.13587        2.35248        7.20973
 H        7.20973        2.35248        4.13587
 H        4.73242       -0.61777        5.96795
 H        5.96795       -0.61776        4.73242
 H        2.94902        4.18455       -0.61777
 H        4.18455        2.94902       -0.61776
 H        4.73242        5.96795       -0.61777
 H        5.96795        4.73242       -0.61776
 H        4.73242        7.75134        1.16563
 H        5.96795        7.75134        2.40116
 H        7.20973        4.78110        2.99771
 H        3.84072        6.85965        3.29286
 H        6.85965        6.85965        0.27393
 H        6.85965        5.62412        1.50946
 H        5.96795        7.75134        5.96795
 H        4.73242        7.75134        4.73242
 H        6.88039        5.03252        6.88039
 H        5.07625        5.62412        6.85965
 H        3.84072        6.85965        6.85965
 H        6.85965        6.85965        3.84072
 H        6.85965        5.62412        5.07625
}

optimize('scf_template')
